# nmr=giao b3lyp/6-31G* nosymm geom=connectivity guess=huckel

input

0 1
C    -2.12111676   -0.41860066   -0.48410386
C    -2.63511040   -2.31748668    0.81303498
C    -1.61033808   -1.47412955    0.40615341
C    -0.41312035   -3.21196563    1.48584398
C    -0.28901770   -2.05025765    0.73421277
C     1.65340121   -3.22145539    0.09561992
C     1.01463157   -1.99002370    0.04794133
C    -3.37993779   -0.74509729   -0.97013525
C    -1.82063094    1.01245281   -0.70485878
C    -2.83100464    1.63801282   -1.42404730
C     2.83095823   -1.63784265   -1.42429185
C     1.82055399   -1.01247274   -0.70495961
C     3.37972857    0.74535773   -0.97038522
C     2.12103110    0.41883903   -0.48412376
C    -1.01458475    1.99013439    0.04784217
C    -1.65313779    3.22155578    0.09552965
C     2.63525970    2.31720415    0.81323299
C     1.61026322    1.47404422    0.40624767
C     0.28898873    2.05003115    0.73431343
C     0.41307205    3.21166446    1.48614574
Se   -4.23016583    0.54827248   -2.00071201
Se   -3.06800385    3.45592600   -1.08123633
Se   -0.96193477    4.45807649    1.29328250
Se    2.15227652    3.73276611    1.91581700
Se    4.23185401    2.16717564   -0.12630607
Se    4.22986626   -0.54799047   -2.00117210
Se    3.06826744   -3.45562667   -1.08110918
Se    0.96220957   -4.45807869    1.29322710
Se   -2.15228855   -3.73334797    1.91536844
Se   -4.23196998   -2.16713752   -0.12637178
Bq   -4.75626164   -4.75626164    4.12633895
Bq   -4.61839899   -4.75626164    4.17235475
Bq   -4.48053633   -4.75626164    4.21437602
Bq   -4.34267367   -4.75626164    4.25240223
Bq   -4.20481102   -4.75626164    4.28643284
Bq   -4.06694836   -4.75626164    4.31646725
Bq   -3.92908570   -4.75626164    4.34250488
Bq   -3.79122305   -4.75626164    4.36454508
Bq   -3.65336039   -4.75626164    4.38258723
Bq   -3.51549774   -4.75626164    4.39663065
Bq   -3.37763508   -4.75626164    4.40667464
Bq   -3.23977242   -4.75626164    4.41271849
Bq   -3.10190977   -4.75626164    4.41476148
Bq   -2.96404711   -4.75626164    4.41280285
Bq   -2.82618445   -4.75626164    4.40684184
Bq   -2.68832180   -4.75626164    4.39687766
Bq   -2.55045914   -4.75626164    4.38290952
Bq   -2.41259649   -4.75626164    4.36493661
Bq   -2.27473383   -4.75626164    4.34295814
Bq   -2.13687117   -4.75626164    4.31697328
Bq   -1.99900852   -4.75626164    4.28698125
Bq   -1.86114586   -4.75626164    4.25298124
Bq   -1.72328320   -4.75626164    4.21497247
Bq   -1.58542055   -4.75626164    4.17295418
Bq   -1.44755789   -4.75626164    4.12692563
Bq   -1.30969523   -4.75626164    4.07688611
Bq   -1.17183258   -4.75626164    4.02283495
Bq   -1.03396992   -4.75626164    3.96477154
Bq   -0.89610727   -4.75626164    3.90269529
Bq   -0.75824461   -4.75626164    3.83660570
Bq   -0.62038195   -4.75626164    3.76650229
Bq   -0.48251930   -4.75626164    3.69238470
Bq   -0.34465664   -4.75626164    3.61425259
Bq   -0.20679398   -4.75626164    3.53210573
Bq   -0.06893133   -4.75626164    3.44594396
Bq    0.06893133   -4.75626164    3.35576719
Bq    0.20679398   -4.75626164    3.26157543
Bq    0.34465664   -4.75626164    3.16336875
Bq    0.48251930   -4.75626164    3.06114733
Bq    0.62038195   -4.75626164    2.95491139
Bq    0.75824461   -4.75626164    2.84466126
Bq    0.89610727   -4.75626164    2.73039733
Bq    1.03396992   -4.75626164    2.61212004
Bq    1.17183258   -4.75626164    2.48982992
Bq    1.30969523   -4.75626164    2.36352754
Bq    1.44755789   -4.75626164    2.23321353
Bq    1.58542055   -4.75626164    2.09888855
Bq    1.72328320   -4.75626164    1.96055330
Bq    1.86114586   -4.75626164    1.81820854
Bq    1.99900852   -4.75626164    1.67185502
Bq    2.13687117   -4.75626164    1.52149352
Bq    2.27473383   -4.75626164    1.36712483
Bq    2.41259649   -4.75626164    1.20874977
Bq    2.55045914   -4.75626164    1.04636915
Bq    2.68832180   -4.75626164    0.87998376
Bq    2.82618445   -4.75626164    0.70959440
Bq    2.96404711   -4.75626164    0.53520188
Bq    3.10190977   -4.75626164    0.35680698
Bq    3.23977242   -4.75626164    0.17441046
Bq    3.37763508   -4.75626164   -0.01198693
Bq    3.51549774   -4.75626164   -0.20238446
Bq    3.65336039   -4.75626164   -0.39678141
Bq    3.79122305   -4.75626164   -0.59517709
Bq    3.92908570   -4.75626164   -0.79757083
Bq    4.06694836   -4.75626164   -1.00396199
Bq    4.20481102   -4.75626164   -1.21434993
Bq    4.34267367   -4.75626164   -1.42873407
Bq    4.48053633   -4.75626164   -1.64711382
Bq    4.61839899   -4.75626164   -1.86948863
Bq    4.75626164   -4.75626164   -2.09585796
Bq   -4.75626164   -4.61839899    3.89821329
Bq   -4.61839899   -4.61839899    3.94685455
Bq   -4.48053633   -4.61839899    3.99150145
Bq   -4.34267367   -4.61839899    4.03215345
Bq   -4.20481102   -4.61839899    4.06880999
Bq   -4.06694836   -4.61839899    4.10147047
Bq   -3.92908570   -4.61839899    4.13013428
Bq   -3.79122305   -4.61839899    4.15480078
Bq   -3.65336039   -4.61839899    4.17546931
Bq   -3.51549774   -4.61839899    4.19213916
Bq   -3.37763508   -4.61839899    4.20480964
Bq   -3.23977242   -4.61839899    4.21347999
Bq   -3.10190977   -4.61839899    4.21814945
Bq   -2.96404711   -4.61839899    4.21881725
Bq   -2.82618445   -4.61839899    4.21548258
Bq   -2.68832180   -4.61839899    4.20814462
Bq   -2.55045914   -4.61839899    4.19680254
Bq   -2.41259649   -4.61839899    4.18145549
Bq   -2.27473383   -4.61839899    4.16210261
Bq   -2.13687117   -4.61839899    4.13874306
Bq   -1.99900852   -4.61839899    4.11137597
Bq   -1.86114586   -4.61839899    4.08000049
Bq   -1.72328320   -4.61839899    4.04461580
Bq   -1.58542055   -4.61839899    4.00522107
Bq   -1.44755789   -4.61839899    3.96181551
Bq   -1.30969523   -4.61839899    3.91439836
Bq   -1.17183258   -4.61839899    3.86296889
Bq   -1.03396992   -4.61839899    3.80752644
Bq   -0.89610727   -4.61839899    3.74807037
Bq   -0.75824461   -4.61839899    3.68460014
Bq   -0.62038195   -4.61839899    3.61711524
Bq   -0.48251930   -4.61839899    3.54561525
Bq   -0.34465664   -4.61839899    3.47009982
Bq   -0.20679398   -4.61839899    3.39056870
Bq   -0.06893133   -4.61839899    3.30702170
Bq    0.06893133   -4.61839899    3.21945874
Bq    0.20679398   -4.61839899    3.12787982
Bq    0.34465664   -4.61839899    3.03228502
Bq    0.48251930   -4.61839899    2.93267453
Bq    0.62038195   -4.61839899    2.82904860
Bq    0.75824461   -4.61839899    2.72140758
Bq    0.89610727   -4.61839899    2.60975190
Bq    1.03396992   -4.61839899    2.49408204
Bq    1.17183258   -4.61839899    2.37439858
Bq    1.30969523   -4.61839899    2.25070213
Bq    1.44755789   -4.61839899    2.12299336
Bq    1.58542055   -4.61839899    1.99127300
Bq    1.72328320   -4.61839899    1.85554181
Bq    1.86114586   -4.61839899    1.71580059
Bq    1.99900852   -4.61839899    1.57205014
Bq    2.13687117   -4.61839899    1.42429131
Bq    2.27473383   -4.61839899    1.27252494
Bq    2.41259649   -4.61839899    1.11675190
Bq    2.55045914   -4.61839899    0.95697303
Bq    2.68832180   -4.61839899    0.79318920
Bq    2.82618445   -4.61839899    0.62540124
Bq    2.96404711   -4.61839899    0.45360999
Bq    3.10190977   -4.61839899    0.27781627
Bq    3.23977242   -4.61839899    0.09802089
Bq    3.37763508   -4.61839899   -0.08577538
Bq    3.51549774   -4.61839899   -0.27357178
Bq    3.65336039   -4.61839899   -0.46536755
Bq    3.79122305   -4.61839899   -0.66116199
Bq    3.92908570   -4.61839899   -0.86095442
Bq    4.06694836   -4.61839899   -1.06474415
Bq    4.20481102   -4.61839899   -1.27253055
Bq    4.34267367   -4.61839899   -1.48431301
Bq    4.48053633   -4.61839899   -1.70009093
Bq    4.61839899   -4.61839899   -1.91986375
Bq    4.75626164   -4.61839899   -2.14363092
Bq   -4.75626164   -4.48053633    3.67415619
Bq   -4.61839899   -4.48053633    3.72542308
Bq   -4.48053633   -4.48053633    3.77269579
Bq   -4.34267367   -4.48053633    3.81597378
Bq   -4.20481102   -4.48053633    3.85525648
Bq   -4.06694836   -4.48053633    3.89054328
Bq   -3.92908570   -4.48053633    3.92183354
Bq   -3.79122305   -4.48053633    3.94912663
Bq   -3.65336039   -4.48053633    3.97242184
Bq   -3.51549774   -4.48053633    3.99171847
Bq   -3.37763508   -4.48053633    4.00701578
Bq   -3.23977242   -4.48053633    4.01831300
Bq   -3.10190977   -4.48053633    4.02560934
Bq   -2.96404711   -4.48053633    4.02890399
Bq   -2.82618445   -4.48053633    4.02819610
Bq   -2.68832180   -4.48053633    4.02348482
Bq   -2.55045914   -4.48053633    4.01476927
Bq   -2.41259649   -4.48053633    4.00204856
Bq   -2.27473383   -4.48053633    3.98532178
Bq   -2.13687117   -4.48053633    3.96458803
Bq   -1.99900852   -4.48053633    3.93984639
Bq   -1.86114586   -4.48053633    3.91109597
Bq   -1.72328320   -4.48053633    3.87833586
Bq   -1.58542055   -4.48053633    3.84156518
Bq   -1.44755789   -4.48053633    3.80078309
Bq   -1.30969523   -4.48053633    3.75598877
Bq   -1.17183258   -4.48053633    3.70718143
Bq   -1.03396992   -4.48053633    3.65436034
Bq   -0.89610727   -4.48053633    3.59752482
Bq   -0.75824461   -4.48053633    3.53667427
Bq   -0.62038195   -4.48053633    3.47180815
Bq   -0.48251930   -4.48053633    3.40292599
Bq   -0.34465664   -4.48053633    3.33002742
Bq   -0.20679398   -4.48053633    3.25311215
Bq   -0.06893133   -4.48053633    3.17217999
Bq    0.06893133   -4.48053633    3.08723084
Bq    0.20679398   -4.48053633    2.99826470
Bq    0.34465664   -4.48053633    2.90528166
Bq    0.48251930   -4.48053633    2.80828193
Bq    0.62038195   -4.48053633    2.70726578
Bq    0.75824461   -4.48053633    2.60223360
Bq    0.89610727   -4.48053633    2.49318584
Bq    1.03396992   -4.48053633    2.38012305
Bq    1.17183258   -4.48053633    2.26304583
Bq    1.30969523   -4.48053633    2.14195487
Bq    1.44755789   -4.48053633    2.01685089
Bq    1.58542055   -4.48053633    1.88773468
Bq    1.72328320   -4.48053633    1.75460705
Bq    1.86114586   -4.48053633    1.61746885
Bq    1.99900852   -4.48053633    1.47632097
Bq    2.13687117   -4.48053633    1.33116430
Bq    2.27473383   -4.48053633    1.18199975
Bq    2.41259649   -4.48053633    1.02882822
Bq    2.55045914   -4.48053633    0.87165063
Bq    2.68832180   -4.48053633    0.71046788
Bq    2.82618445   -4.48053633    0.54528085
Bq    2.96404711   -4.48053633    0.37609043
Bq    3.10190977   -4.48053633    0.20289748
Bq    3.23977242   -4.48053633    0.02570284
Bq    3.37763508   -4.48053633   -0.15549269
Bq    3.51549774   -4.48053633   -0.34068830
Bq    3.65336039   -4.48053633   -0.52988324
Bq    3.79122305   -4.48053633   -0.72307676
Bq    3.92908570   -4.48053633   -0.92026814
Bq    4.06694836   -4.48053633   -1.12145672
Bq    4.20481102   -4.48053633   -1.32664182
Bq    4.34267367   -4.48053633   -1.53582282
Bq    4.48053633   -4.48053633   -1.74899912
Bq    4.61839899   -4.48053633   -1.96617014
Bq    4.75626164   -4.48053633   -2.18733533
Bq   -4.75626164   -4.34267367    3.45416712
Bq   -4.61839899   -4.34267367    3.50805979
Bq   -4.48053633   -4.34267367    3.55795850
Bq   -4.34267367   -4.34267367    3.60386268
Bq   -4.20481102   -4.34267367    3.64577175
Bq   -4.06694836   -4.34267367    3.68368511
Bq   -3.92908570   -4.34267367    3.71760209
Bq   -3.79122305   -4.34267367    3.74752204
Bq   -3.65336039   -4.34267367    3.77344426
Bq   -3.51549774   -4.34267367    3.79536799
Bq   -3.37763508   -4.34267367    3.81329250
Bq   -3.23977242   -4.34267367    3.82721697
Bq   -3.10190977   -4.34267367    3.83714060
Bq   -2.96404711   -4.34267367    3.84306253
Bq   -2.82618445   -4.34267367    3.84498188
Bq   -2.68832180   -4.34267367    3.84289775
Bq   -2.55045914   -4.34267367    3.83680923
Bq   -2.41259649   -4.34267367    3.82671536
Bq   -2.27473383   -4.34267367    3.81261521
Bq   -2.13687117   -4.34267367    3.79450779
Bq   -1.99900852   -4.34267367    3.77239215
Bq   -1.86114586   -4.34267367    3.74626731
Bq   -1.72328320   -4.34267367    3.71613232
Bq   -1.58542055   -4.34267367    3.68198623
Bq   -1.44755789   -4.34267367    3.64382813
Bq   -1.30969523   -4.34267367    3.60165713
Bq   -1.17183258   -4.34267367    3.55547238
Bq   -1.03396992   -4.34267367    3.50527309
Bq   -0.89610727   -4.34267367    3.45105852
Bq   -0.75824461   -4.34267367    3.39282802
Bq   -0.62038195   -4.34267367    3.33058098
Bq   -0.48251930   -4.34267367    3.26431691
Bq   -0.34465664   -4.34267367    3.19403538
Bq   -0.20679398   -4.34267367    3.11973610
Bq   -0.06893133   -4.34267367    3.04141884
Bq    0.06893133   -4.34267367    2.95908349
Bq    0.20679398   -4.34267367    2.87273006
Bq    0.34465664   -4.34267367    2.78235866
Bq    0.48251930   -4.34267367    2.68796949
Bq    0.62038195   -4.34267367    2.58956287
Bq    0.75824461   -4.34267367    2.48713922
Bq    0.89610727   -4.34267367    2.38069904
Bq    1.03396992   -4.34267367    2.27024291
Bq    1.17183258   -4.34267367    2.15577151
Bq    1.30969523   -4.34267367    2.03728557
Bq    1.44755789   -4.34267367    1.91478588
Bq    1.58542055   -4.34267367    1.78827329
Bq    1.72328320   -4.34267367    1.65774869
Bq    1.86114586   -4.34267367    1.52321299
Bq    1.99900852   -4.34267367    1.38466713
Bq    2.13687117   -4.34267367    1.24211209
Bq    2.27473383   -4.34267367    1.09554881
Bq    2.41259649   -4.34267367    0.94497828
Bq    2.55045914   -4.34267367    0.79040145
Bq    2.68832180   -4.34267367    0.63181929
Bq    2.82618445   -4.34267367    0.46923272
Bq    2.96404711   -4.34267367    0.30264268
Bq    3.10190977   -4.34267367    0.13205006
Bq    3.23977242   -4.34267367   -0.04254425
Bq    3.37763508   -4.34267367   -0.22113942
Bq    3.51549774   -4.34267367   -0.40373462
Bq    3.65336039   -4.34267367   -0.59032905
Bq    3.79122305   -4.34267367   -0.78092195
Bq    3.92908570   -4.34267367   -0.97551259
Bq    4.06694836   -4.34267367   -1.17410027
Bq    4.20481102   -4.34267367   -1.37668431
Bq    4.34267367   -4.34267367   -1.58326407
Bq    4.48053633   -4.34267367   -1.79383895
Bq    4.61839899   -4.34267367   -2.00840834
Bq    4.75626164   -4.34267367   -2.22697170
Bq   -4.75626164   -4.20481102    3.23824553
Bq   -4.61839899   -4.20481102    3.29476413
Bq   -4.48053633   -4.20481102    3.34728899
Bq   -4.34267367   -4.20481102    3.39581955
Bq   -4.20481102   -4.20481102    3.44035522
Bq   -4.06694836   -4.20481102    3.48089536
Bq   -3.92908570   -4.20481102    3.51743932
Bq   -3.79122305   -4.20481102    3.54998642
Bq   -3.65336039   -4.20481102    3.57853594
Bq   -3.51549774   -4.20481102    3.60308713
Bq   -3.37763508   -4.20481102    3.62363919
Bq   -3.23977242   -4.20481102    3.64019131
Bq   -3.10190977   -4.20481102    3.65274263
Bq   -2.96404711   -4.20481102    3.66129228
Bq   -2.82618445   -4.20481102    3.66583934
Bq   -2.68832180   -4.20481102    3.66638285
Bq   -2.55045914   -4.20481102    3.66292187
Bq   -2.41259649   -4.20481102    3.65545539
Bq   -2.27473383   -4.20481102    3.64398240
Bq   -2.13687117   -4.20481102    3.62850188
Bq   -1.99900852   -4.20481102    3.60901280
Bq   -1.86114586   -4.20481102    3.58551413
Bq   -1.72328320   -4.20481102    3.55800484
Bq   -1.58542055   -4.20481102    3.52648391
Bq   -1.44755789   -4.20481102    3.49095035
Bq   -1.30969523   -4.20481102    3.45140320
Bq   -1.17183258   -4.20481102    3.40784156
Bq   -1.03396992   -4.20481102    3.36026454
Bq   -0.89610727   -4.20481102    3.30867136
Bq   -0.75824461   -4.20481102    3.25306128
Bq   -0.62038195   -4.20481102    3.19343366
Bq   -0.48251930   -4.20481102    3.12978795
Bq   -0.34465664   -4.20481102    3.06212368
Bq   -0.20679398   -4.20481102    2.99044052
Bq   -0.06893133   -4.20481102    2.91473823
Bq    0.06893133   -4.20481102    2.83501669
Bq    0.20679398   -4.20481102    2.75127590
Bq    0.34465664   -4.20481102    2.66351599
Bq    0.48251930   -4.20481102    2.57173718
Bq    0.62038195   -4.20481102    2.47593982
Bq    0.75824461   -4.20481102    2.37612436
Bq    0.89610727   -4.20481102    2.27229137
Bq    1.03396992   -4.20481102    2.16444147
Bq    1.17183258   -4.20481102    2.05257541
Bq    1.30969523   -4.20481102    1.93669398
Bq    1.44755789   -4.20481102    1.81679805
Bq    1.58542055   -4.20481102    1.69288853
Bq    1.72328320   -4.20481102    1.56496638
Bq    1.86114586   -4.20481102    1.43303260
Bq    1.99900852   -4.20481102    1.29708820
Bq    2.13687117   -4.20481102    1.15713420
Bq    2.27473383   -4.20481102    1.01317164
Bq    2.41259649   -4.20481102    0.86520155
Bq    2.55045914   -4.20481102    0.71322496
Bq    2.68832180   -4.20481102    0.55724287
Bq    2.82618445   -4.20481102    0.39725627
Bq    2.96404711   -4.20481102    0.23326614
Bq    3.10190977   -4.20481102    0.06527342
Bq    3.23977242   -4.20481102   -0.10672098
Bq    3.37763508   -4.20481102   -0.28271618
Bq    3.51549774   -4.20481102   -0.46271132
Bq    3.65336039   -4.20481102   -0.64670558
Bq    3.79122305   -4.20481102   -0.83469817
Bq    3.92908570   -4.20481102   -1.02668835
Bq    4.06694836   -4.20481102   -1.22267539
Bq    4.20481102   -4.20481102   -1.42265861
Bq    4.34267367   -4.20481102   -1.62663735
Bq    4.48053633   -4.20481102   -1.83461098
Bq    4.61839899   -4.20481102   -2.04657892
Bq    4.75626164   -4.20481102   -2.26254061
Bq   -4.75626164   -4.06694836    3.02639083
Bq   -4.61839899   -4.06694836    3.08553550
Bq   -4.48053633   -4.06694836    3.14068668
Bq   -4.34267367   -4.06694836    3.19184379
Bq   -4.20481102   -4.06694836    3.23900624
Bq   -4.06694836   -4.06694836    3.28217340
Bq   -3.92908570   -4.06694836    3.32134459
Bq   -3.79122305   -4.06694836    3.35651912
Bq   -3.65336039   -4.06694836    3.38769625
Bq   -3.51549774   -4.06694836    3.41487522
Bq   -3.37763508   -4.06694836    3.43805520
Bq   -3.23977242   -4.06694836    3.45723535
Bq   -3.10190977   -4.06694836    3.47241480
Bq   -2.96404711   -4.06694836    3.48359262
Bq   -2.82618445   -4.06694836    3.49076786
Bq   -2.68832180   -4.06694836    3.49393953
Bq   -2.55045914   -4.06694836    3.49310661
Bq   -2.41259649   -4.06694836    3.48826807
Bq   -2.27473383   -4.06694836    3.47942283
Bq   -2.13687117   -4.06694836    3.46656981
Bq   -1.99900852   -4.06694836    3.44970790
Bq   -1.86114586   -4.06694836    3.42883600
Bq   -1.72328320   -4.06694836    3.40395302
Bq   -1.58542055   -4.06694836    3.37505786
Bq   -1.44755789   -4.06694836    3.34214944
Bq   -1.30969523   -4.06694836    3.30522673
Bq   -1.17183258   -4.06694836    3.26428874
Bq   -1.03396992   -4.06694836    3.21933452
Bq   -0.89610727   -4.06694836    3.17036320
Bq   -0.75824461   -4.06694836    3.11737397
Bq   -0.62038195   -4.06694836    3.06036613
Bq   -0.48251930   -4.06694836    2.99933907
Bq   -0.34465664   -4.06694836    2.93429229
Bq   -0.20679398   -4.06694836    2.86522541
Bq   -0.06893133   -4.06694836    2.79213817
Bq    0.06893133   -4.06694836    2.71503044
Bq    0.20679398   -4.06694836    2.63390222
Bq    0.34465664   -4.06694836    2.54875364
Bq    0.48251930   -4.06694836    2.45958495
Bq    0.62038195   -4.06694836    2.36639655
Bq    0.75824461   -4.06694836    2.26918893
Bq    0.89610727   -4.06694836    2.16796269
Bq    1.03396992   -4.06694836    2.06271856
Bq    1.17183258   -4.06694836    1.95345731
Bq    1.30969523   -4.06694836    1.84017984
Bq    1.44755789   -4.06694836    1.72288709
Bq    1.58542055   -4.06694836    1.60158004
Bq    1.72328320   -4.06694836    1.47625975
Bq    1.86114586   -4.06694836    1.34692727
Bq    1.99900852   -4.06694836    1.21358370
Bq    2.13687117   -4.06694836    1.07623014
Bq    2.27473383   -4.06694836    0.93486771
Bq    2.41259649   -4.06694836    0.78949749
Bq    2.55045914   -4.06694836    0.64012057
Bq    2.68832180   -4.06694836    0.48673802
Bq    2.82618445   -4.06694836    0.32935089
Bq    2.96404711   -4.06694836    0.16796019
Bq    3.10190977   -4.06694836    0.00256691
Bq    3.23977242   -4.06694836   -0.16682800
Bq    3.37763508   -4.06694836   -0.34022362
Bq    3.51549774   -4.06694836   -0.51761907
Bq    3.65336039   -4.06694836   -0.69901349
Bq    3.79122305   -4.06694836   -0.88440608
Bq    3.92908570   -4.06694836   -1.07379608
Bq    4.06694836   -4.06694836   -1.26718273
Bq    4.20481102   -4.06694836   -1.46456535
Bq    4.34267367   -4.06694836   -1.66594326
Bq    4.48053633   -4.06694836   -1.87131584
Bq    4.61839899   -4.06694836   -2.08068248
Bq    4.75626164   -4.06694836   -2.29404261
Bq   -4.75626164   -3.92908570    2.81860242
Bq   -4.61839899   -3.92908570    2.88037328
Bq   -4.48053633   -3.92908570    2.93815092
Bq   -4.34267367   -3.92908570    2.99193475
Bq   -4.20481102   -3.92908570    3.04172418
Bq   -4.06694836   -3.92908570    3.08751856
Bq   -3.92908570   -3.92908570    3.12931722
Bq   -3.79122305   -3.92908570    3.16711945
Bq   -3.65336039   -3.92908570    3.20092450
Bq   -3.51549774   -3.92908570    3.23073157
Bq   -3.37763508   -3.92908570    3.25653983
Bq   -3.23977242   -3.92908570    3.27834842
Bq   -3.10190977   -3.92908570    3.29615641
Bq   -2.96404711   -3.92908570    3.30996286
Bq   -2.82618445   -3.92908570    3.31976677
Bq   -2.68832180   -3.92908570    3.32556712
Bq   -2.55045914   -3.92908570    3.32736283
Bq   -2.41259649   -3.92908570    3.32515280
Bq   -2.27473383   -3.92908570    3.31893591
Bq   -2.13687117   -3.92908570    3.30871101
Bq   -1.99900852   -3.92908570    3.29447691
Bq   -1.86114586   -3.92908570    3.27623245
Bq   -1.72328320   -3.92908570    3.25397643
Bq   -1.58542055   -3.92908570    3.22770769
Bq   -1.44755789   -3.92908570    3.19742506
Bq   -1.30969523   -3.92908570    3.16312742
Bq   -1.17183258   -3.92908570    3.12481368
Bq   -1.03396992   -3.92908570    3.08248282
Bq   -0.89610727   -3.92908570    3.03613387
Bq   -0.75824461   -3.92908570    2.98576595
Bq   -0.62038195   -3.92908570    2.93137830
Bq   -0.48251930   -3.92908570    2.87297023
Bq   -0.34465664   -3.92908570    2.81054119
Bq   -0.20679398   -3.92908570    2.74409076
Bq   -0.06893133   -3.92908570    2.67361866
Bq    0.06893133   -3.92908570    2.59912473
Bq    0.20679398   -3.92908570    2.52060899
Bq    0.34465664   -3.92908570    2.43807157
Bq    0.48251930   -3.92908570    2.35151276
Bq    0.62038195   -3.92908570    2.26093298
Bq    0.75824461   -3.92908570    2.16633279
Bq    0.89610727   -3.92908570    2.06771286
Bq    1.03396992   -3.92908570    1.96507396
Bq    1.17183258   -3.92908570    1.85841698
Bq    1.30969523   -3.92908570    1.74774287
Bq    1.44755789   -3.92908570    1.63305266
Bq    1.58542055   -3.92908570    1.51434744
Bq    1.72328320   -3.92908570    1.39162834
Bq    1.86114586   -3.92908570    1.26489650
Bq    1.99900852   -3.92908570    1.13415312
Bq    2.13687117   -3.92908570    0.99939937
Bq    2.27473383   -3.92908570    0.86063643
Bq    2.41259649   -3.92908570    0.71786547
Bq    2.55045914   -3.92908570    0.57108765
Bq    2.68832180   -3.92908570    0.42030409
Bq    2.82618445   -3.92908570    0.26551590
Bq    2.96404711   -3.92908570    0.10672414
Bq    3.10190977   -3.92908570   -0.05607016
Bq    3.23977242   -3.92908570   -0.22286600
Bq    3.37763508   -3.92908570   -0.39366244
Bq    3.51549774   -3.92908570   -0.56845855
Bq    3.65336039   -3.92908570   -0.74725347
Bq    3.79122305   -3.92908570   -0.93004636
Bq    3.92908570   -3.92908570   -1.11683644
Bq    4.06694836   -3.92908570   -1.30762295
Bq    4.20481102   -3.92908570   -1.50240518
Bq    4.34267367   -3.92908570   -1.70118245
Bq    4.48053633   -3.92908570   -1.90395413
Bq    4.61839899   -3.92908570   -2.11071961
Bq    4.75626164   -3.92908570   -2.32147832
Bq   -4.75626164   -3.79122305    2.61487968
Bq   -4.61839899   -3.79122305    2.67927684
Bq   -4.48053633   -3.79122305    2.73968105
Bq   -4.34267367   -3.79122305    2.79609176
Bq   -4.20481102   -3.79122305    2.84850834
Bq   -4.06694836   -3.79122305    2.89693015
Bq   -3.92908570   -3.79122305    2.94135651
Bq   -3.79122305   -3.79122305    2.98178670
Bq   -3.65336039   -3.79122305    3.01821994
Bq   -3.51549774   -3.79122305    3.05065544
Bq   -3.37763508   -3.79122305    3.07909235
Bq   -3.23977242   -3.79122305    3.10352975
Bq   -3.10190977   -3.79122305    3.12396672
Bq   -2.96404711   -3.79122305    3.14040227
Bq   -2.82618445   -3.79122305    3.15283536
Bq   -2.68832180   -3.79122305    3.16126491
Bq   -2.55045914   -3.79122305    3.16568982
Bq   -2.41259649   -3.79122305    3.16610891
Bq   -2.27473383   -3.79122305    3.16252100
Bq   -2.13687117   -3.79122305    3.15492487
Bq   -1.99900852   -3.79122305    3.14331927
Bq   -1.86114586   -3.79122305    3.12770293
Bq   -1.72328320   -3.79122305    3.10807459
Bq   -1.58542055   -3.79122305    3.08443297
Bq   -1.44755789   -3.79122305    3.05677683
Bq   -1.30969523   -3.79122305    3.02510493
Bq   -1.17183258   -3.79122305    2.98941610
Bq   -1.03396992   -3.79122305    2.94970921
Bq   -0.89610727   -3.79122305    2.90598320
Bq   -0.75824461   -3.79122305    2.85823711
Bq   -0.62038195   -3.79122305    2.80647008
Bq   -0.48251930   -3.79122305    2.75068136
Bq   -0.34465664   -3.79122305    2.69087035
Bq   -0.20679398   -3.79122305    2.62703656
Bq   -0.06893133   -3.79122305    2.55917969
Bq    0.06893133   -3.79122305    2.48729958
Bq    0.20679398   -3.79122305    2.41139621
Bq    0.34465664   -3.79122305    2.33146976
Bq    0.48251930   -3.79122305    2.24752054
Bq    0.62038195   -3.79122305    2.15954903
Bq    0.75824461   -3.79122305    2.06755583
Bq    0.89610727   -3.79122305    1.97154168
Bq    1.03396992   -3.79122305    1.87150746
Bq    1.17183258   -3.79122305    1.76745412
Bq    1.30969523   -3.79122305    1.65938271
Bq    1.44755789   -3.79122305    1.54729438
Bq    1.58542055   -3.79122305    1.43119029
Bq    1.72328320   -3.79122305    1.31107167
Bq    1.86114586   -3.79122305    1.18693978
Bq    1.99900852   -3.79122305    1.05879589
Bq    2.13687117   -3.79122305    0.92664126
Bq    2.27473383   -3.79122305    0.79047715
Bq    2.41259649   -3.79122305    0.65030483
Bq    2.55045914   -3.79122305    0.50612550
Bq    2.68832180   -3.79122305    0.35794036
Bq    2.82618445   -3.79122305    0.20575057
Bq    2.96404711   -3.79122305    0.04955725
Bq    3.10190977   -3.79122305   -0.11063853
Bq    3.23977242   -3.79122305   -0.27483573
Bq    3.37763508   -3.79122305   -0.44303337
Bq    3.51549774   -3.79122305   -0.61523051
Bq    3.65336039   -3.79122305   -0.79142624
Bq    3.79122305   -3.79122305   -0.97161972
Bq    3.92908570   -3.79122305   -1.15581014
Bq    4.06694836   -3.79122305   -1.34399674
Bq    4.20481102   -3.79122305   -1.53617878
Bq    4.34267367   -3.79122305   -1.73235559
Bq    4.48053633   -3.79122305   -1.93252653
Bq    4.61839899   -3.79122305   -2.13669098
Bq    4.75626164   -3.79122305   -2.34484837
Bq   -4.75626164   -3.65336039    2.41522197
Bq   -4.61839899   -3.65336039    2.48224550
Bq   -4.48053633   -3.65336039    2.54527641
Bq   -4.34267367   -3.65336039    2.60431411
Bq   -4.20481102   -3.65336039    2.65935800
Bq   -4.06694836   -3.65336039    2.71040742
Bq   -3.92908570   -3.65336039    2.75746169
Bq   -3.79122305   -3.65336039    2.80052008
Bq   -3.65336039   -3.65336039    2.83958181
Bq   -3.51549774   -3.65336039    2.87464606
Bq   -3.37763508   -3.65336039    2.90571195
Bq   -3.23977242   -3.65336039    2.93277857
Bq   -3.10190977   -3.65336039    2.95584494
Bq   -2.96404711   -3.65336039    2.97491005
Bq   -2.82618445   -3.65336039    2.98997282
Bq   -2.68832180   -3.65336039    3.00103214
Bq   -2.55045914   -3.65336039    3.00808682
Bq   -2.41259649   -3.65336039    3.01113566
Bq   -2.27473383   -3.65336039    3.01017740
Bq   -2.13687117   -3.65336039    3.00521073
Bq   -1.99900852   -3.65336039    2.99623434
Bq   -1.86114586   -3.65336039    2.98324687
Bq   -1.72328320   -3.65336039    2.96624695
Bq   -1.58542055   -3.65336039    2.94523321
Bq   -1.44755789   -3.65336039    2.92020430
Bq   -1.30969523   -3.65336039    2.89115889
Bq   -1.17183258   -3.65336039    2.85809568
Bq   -1.03396992   -3.65336039    2.82101343
Bq   -0.89610727   -3.65336039    2.77991099
Bq   -0.75824461   -3.65336039    2.73478729
Bq   -0.62038195   -3.65336039    2.68564137
Bq   -0.48251930   -3.65336039    2.63247241
Bq   -0.34465664   -3.65336039    2.57527973
Bq   -0.20679398   -3.65336039    2.51406280
Bq   -0.06893133   -3.65336039    2.44882127
Bq    0.06893133   -3.65336039    2.37955496
Bq    0.20679398   -3.65336039    2.30626387
Bq    0.34465664   -3.65336039    2.22894818
Bq    0.48251930   -3.65336039    2.14760824
Bq    0.62038195   -3.65336039    2.06224458
Bq    0.75824461   -3.65336039    1.97285788
Bq    0.89610727   -3.65336039    1.87944896
Bq    1.03396992   -3.65336039    1.78201879
Bq    1.17183258   -3.65336039    1.68056842
Bq    1.30969523   -3.65336039    1.57509901
Bq    1.44755789   -3.65336039    1.46561180
Bq    1.58542055   -3.65336039    1.35210809
Bq    1.72328320   -3.65336039    1.23458921
Bq    1.86114586   -3.65336039    1.11305651
Bq    1.99900852   -3.65336039    0.98751136
Bq    2.13687117   -3.65336039    0.85795514
Bq    2.27473383   -3.65336039    0.72438918
Bq    2.41259649   -3.65336039    0.58681483
Bq    2.55045914   -3.65336039    0.44523337
Bq    2.68832180   -3.65336039    0.29964607
Bq    2.82618445   -3.65336039    0.15005413
Bq    2.96404711   -3.65336039   -0.00354126
Bq    3.10190977   -3.65336039   -0.16113899
Bq    3.23977242   -3.65336039   -0.32273798
Bq    3.37763508   -3.65336039   -0.48833722
Bq    3.51549774   -3.65336039   -0.65793573
Bq    3.65336039   -3.65336039   -0.83153259
Bq    3.79122305   -3.65336039   -1.00912694
Bq    3.92908570   -3.65336039   -1.19071795
Bq    4.06694836   -3.65336039   -1.37630484
Bq    4.20481102   -3.65336039   -1.56588688
Bq    4.34267367   -3.65336039   -1.75946339
Bq    4.48053633   -3.65336039   -1.95703371
Bq    4.61839899   -3.65336039   -2.15859723
Bq    4.75626164   -3.65336039   -2.36415339
Bq   -4.75626164   -3.51549774    2.21962861
Bq   -4.61839899   -3.51549774    2.28927859
Bq   -4.48053633   -3.51549774    2.35493627
Bq   -4.34267367   -3.51549774    2.41660108
Bq   -4.20481102   -3.51549774    2.47427241