# nmr=giao b3lyp/6-31G* nosymm geom=connectivity guess=huckel

input

0 1
C    -2.32879124   -0.48056818   -0.13827299
S    -3.57018832    3.21542660    0.51644491
C    -3.44924969    1.53197786    0.22733451
C    -2.17352019    0.96919978    0.11252693
S    -0.96816693    4.72222563    0.36042364
C    -1.86025109    3.26084772    0.42151177
C    -1.17665427    2.05886141    0.20831974
S     1.95970867    4.40939181   -0.29321038
C     0.40939337    3.75979805    0.03218527
C     0.25733376    2.36915325    0.01600082
S     4.17009159    2.37968089   -0.54252601
C    -3.69320180   -0.75610196   -0.27955064
S    -4.80668663    0.52308751   -0.04114882
C    -1.58918924   -1.76116611   -0.19848971
C    -2.51331554   -2.79178173   -0.40183242
S    -4.17004719   -2.37965013   -0.54274323
C     2.51342553    2.79183922   -0.40119851
C     1.58921245    1.76121015   -0.19819055
S     4.80678390   -0.52327999   -0.04173945
C     3.69316594    0.75605843   -0.27992436
C     2.32882256    0.48055298   -0.13836081
C    -0.25735146   -2.36909849    0.01612679
C    -0.40948527   -3.75975006    0.03258854
S    -1.95968769   -4.40941547   -0.29341230
S     0.96801200   -4.72209961    0.36078845
S     3.57015499   -3.21549892    0.51657999
C     3.44922572   -1.53198744    0.22756144
C     2.17355145   -0.96918339    0.11262824
C     1.17666928   -2.05884741    0.20825928
C     1.86023534   -3.26088239    0.42131987
Bq   -4.83536303   -4.83536303   -0.18915098
Bq   -4.63800127   -4.83536303   -0.12641192
Bq   -4.44063951   -4.83536303   -0.06426523
Bq   -4.24327776   -4.83536303   -0.00271091
Bq   -4.04591600   -4.83536303    0.05825105
Bq   -3.84855425   -4.83536303    0.11862067
Bq   -3.65119249   -4.83536303    0.17839796
Bq   -3.45383073   -4.83536303    0.23758293
Bq   -3.25646898   -4.83536303    0.29617559
Bq   -3.05910722   -4.83536303    0.35417596
Bq   -2.86174546   -4.83536303    0.41158405
Bq   -2.66438371   -4.83536303    0.46839987
Bq   -2.46702195   -4.83536303    0.52462344
Bq   -2.26966020   -4.83536303    0.58025478
Bq   -2.07229844   -4.83536303    0.63529389
Bq   -1.87493668   -4.83536303    0.68974080
Bq   -1.67757493   -4.83536303    0.74359551
Bq   -1.48021317   -4.83536303    0.79685804
Bq   -1.28285142   -4.83536303    0.84952841
Bq   -1.08548966   -4.83536303    0.90160662
Bq   -0.88812790   -4.83536303    0.95309269
Bq   -0.69076615   -4.83536303    1.00398663
Bq   -0.49340439   -4.83536303    1.05428844
Bq   -0.29604263   -4.83536303    1.10399813
Bq   -0.09868088   -4.83536303    1.15311570
Bq    0.09868088   -4.83536303    1.20164116
Bq    0.29604263   -4.83536303    1.24957451
Bq    0.49340439   -4.83536303    1.29691574
Bq    0.69076615   -4.83536303    1.34366486
Bq    0.88812790   -4.83536303    1.38982184
Bq    1.08548966   -4.83536303    1.43538669
Bq    1.28285142   -4.83536303    1.48035940
Bq    1.48021317   -4.83536303    1.52473996
Bq    1.67757493   -4.83536303    1.56852835
Bq    1.87493668   -4.83536303    1.61172455
Bq    2.07229844   -4.83536303    1.65432857
Bq    2.26966020   -4.83536303    1.69634038
Bq    2.46702195   -4.83536303    1.73775997
Bq    2.66438371   -4.83536303    1.77858732
Bq    2.86174546   -4.83536303    1.81882242
Bq    3.05910722   -4.83536303    1.85846525
Bq    3.25646898   -4.83536303    1.89751581
Bq    3.45383073   -4.83536303    1.93597407
Bq    3.65119249   -4.83536303    1.97384002
Bq    3.84855425   -4.83536303    2.01111365
Bq    4.04591600   -4.83536303    2.04779495
Bq    4.24327776   -4.83536303    2.08388391
Bq    4.44063951   -4.83536303    2.11938051
Bq    4.63800127   -4.83536303    2.15428474
Bq    4.83536303   -4.83536303    2.18859660
Bq   -4.83536303   -4.63800127   -0.15480398
Bq   -4.63800127   -4.63800127   -0.09404570
Bq   -4.44063951   -4.63800127   -0.03387980
Bq   -4.24327776   -4.63800127    0.02569373
Bq   -4.04591600   -4.63800127    0.08467491
Bq   -3.84855425   -4.63800127    0.14306374
Bq   -3.65119249   -4.63800127    0.20086023
Bq   -3.45383073   -4.63800127    0.25806441
Bq   -3.25646898   -4.63800127    0.31467627
Bq   -3.05910722   -4.63800127    0.37069585
Bq   -2.86174546   -4.63800127    0.42612314
Bq   -2.66438371   -4.63800127    0.48095817
Bq   -2.46702195   -4.63800127    0.53520096
Bq   -2.26966020   -4.63800127    0.58885151
Bq   -2.07229844   -4.63800127    0.64190984
Bq   -1.87493668   -4.63800127    0.69437598
Bq   -1.67757493   -4.63800127    0.74624993
Bq   -1.48021317   -4.63800127    0.79753171
Bq   -1.28285142   -4.63800127    0.84822133
Bq   -1.08548966   -4.63800127    0.89831882
Bq   -0.88812790   -4.63800127    0.94782418
Bq   -0.69076615   -4.63800127    0.99673741
Bq   -0.49340439   -4.63800127    1.04505854
Bq   -0.29604263   -4.63800127    1.09278757
Bq   -0.09868088   -4.63800127    1.13992449
Bq    0.09868088   -4.63800127    1.18646932
Bq    0.29604263   -4.63800127    1.23242206
Bq    0.49340439   -4.63800127    1.27778270
Bq    0.69076615   -4.63800127    1.32255123
Bq    0.88812790   -4.63800127    1.36672766
Bq    1.08548966   -4.63800127    1.41031196
Bq    1.28285142   -4.63800127    1.45330414
Bq    1.48021317   -4.63800127    1.49570417
Bq    1.67757493   -4.63800127    1.53751206
Bq    1.87493668   -4.63800127    1.57872777
Bq    2.07229844   -4.63800127    1.61935129
Bq    2.26966020   -4.63800127    1.65938262
Bq    2.46702195   -4.63800127    1.69882173
Bq    2.66438371   -4.63800127    1.73766861
Bq    2.86174546   -4.63800127    1.77592324
Bq    3.05910722   -4.63800127    1.81358561
Bq    3.25646898   -4.63800127    1.85065570
Bq    3.45383073   -4.63800127    1.88713349
Bq    3.65119249   -4.63800127    1.92301898
Bq    3.84855425   -4.63800127    1.95831215
Bq    4.04591600   -4.63800127    1.99301298
Bq    4.24327776   -4.63800127    2.02712147
Bq    4.44063951   -4.63800127    2.06063760
Bq    4.63800127   -4.63800127    2.09356136
Bq    4.83536303   -4.63800127    2.12589274
Bq   -4.83536303   -4.44063951   -0.11986636
Bq   -4.63800127   -4.44063951   -0.06108887
Bq   -4.44063951   -4.44063951   -0.00290375
Bq   -4.24327776   -4.44063951    0.05468899
Bq   -4.04591600   -4.44063951    0.11168937
Bq   -3.84855425   -4.44063951    0.16809740
Bq   -3.65119249   -4.44063951    0.22391310
Bq   -3.45383073   -4.44063951    0.27913647
Bq   -3.25646898   -4.44063951    0.33376753
Bq   -3.05910722   -4.44063951    0.38780631
Bq   -2.86174546   -4.44063951    0.44125280
Bq   -2.66438371   -4.44063951    0.49410703
Bq   -2.46702195   -4.44063951    0.54636902
Bq   -2.26966020   -4.44063951    0.59803877
Bq   -2.07229844   -4.44063951    0.64911632
Bq   -1.87493668   -4.44063951    0.69960168
Bq   -1.67757493   -4.44063951    0.74949486
Bq   -1.48021317   -4.44063951    0.79879588
Bq   -1.28285142   -4.44063951    0.84750475
Bq   -1.08548966   -4.44063951    0.89562150
Bq   -0.88812790   -4.44063951    0.94314614
Bq   -0.69076615   -4.44063951    0.99007867
Bq   -0.49340439   -4.44063951    1.03641911
Bq   -0.29604263   -4.44063951    1.08216747
Bq   -0.09868088   -4.44063951    1.12732375
Bq    0.09868088   -4.44063951    1.17188795
Bq    0.29604263   -4.44063951    1.21586007
Bq    0.49340439   -4.44063951    1.25924012
Bq    0.69076615   -4.44063951    1.30202808
Bq    0.88812790   -4.44063951    1.34422395
Bq    1.08548966   -4.44063951    1.38582772
Bq    1.28285142   -4.44063951    1.42683937
Bq    1.48021317   -4.44063951    1.46725889
Bq    1.67757493   -4.44063951    1.50708628
Bq    1.87493668   -4.44063951    1.54632150
Bq    2.07229844   -4.44063951    1.58496455
Bq    2.26966020   -4.44063951    1.62301540
Bq    2.46702195   -4.44063951    1.66047405
Bq    2.66438371   -4.44063951    1.69734046
Bq    2.86174546   -4.44063951    1.73361463
Bq    3.05910722   -4.44063951    1.76929654
Bq    3.25646898   -4.44063951    1.80438617
Bq    3.45383073   -4.44063951    1.83888351
Bq    3.65119249   -4.44063951    1.87278854
Bq    3.84855425   -4.44063951    1.90610125
Bq    4.04591600   -4.44063951    1.93882162
Bq    4.24327776   -4.44063951    1.97094964
Bq    4.44063951   -4.44063951    2.00248530
Bq    4.63800127   -4.44063951    2.03342859
Bq    4.83536303   -4.44063951    2.06377950
Bq   -4.83536303   -4.24327776   -0.08433811
Bq   -4.63800127   -4.24327776   -0.02754140
Bq   -4.44063951   -4.24327776    0.02866292
Bq   -4.24327776   -4.24327776    0.08427487
Bq   -4.04591600   -4.24327776    0.13929445
Bq   -3.84855425   -4.24327776    0.19372168
Bq   -3.65119249   -4.24327776    0.24755657
Bq   -3.45383073   -4.24327776    0.30079913
Bq   -3.25646898   -4.24327776    0.35344939
Bq   -3.05910722   -4.24327776    0.40550735
Bq   -2.86174546   -4.24327776    0.45697303
Bq   -2.66438371   -4.24327776    0.50784646
Bq   -2.46702195   -4.24327776    0.55812763
Bq   -2.26966020   -4.24327776    0.60781659
Bq   -2.07229844   -4.24327776    0.65691334
Bq   -1.87493668   -4.24327776    0.70541791
Bq   -1.67757493   -4.24327776    0.75333030
Bq   -1.48021317   -4.24327776    0.80065055
Bq   -1.28285142   -4.24327776    0.84737867
Bq   -1.08548966   -4.24327776    0.89351467
Bq   -0.88812790   -4.24327776    0.93905858
Bq   -0.69076615   -4.24327776    0.98401040
Bq   -0.49340439   -4.24327776    1.02837015
Bq   -0.29604263   -4.24327776    1.07213784
Bq   -0.09868088   -4.24327776    1.11531346
Bq    0.09868088   -4.24327776    1.15789703
Bq    0.29604263   -4.24327776    1.19988855
Bq    0.49340439   -4.24327776    1.24128801
Bq    0.69076615   -4.24327776    1.28209540
Bq    0.88812790   -4.24327776    1.32231072
Bq    1.08548966   -4.24327776    1.36193396
Bq    1.28285142   -4.24327776    1.40096510
Bq    1.48021317   -4.24327776    1.43940412
Bq    1.67757493   -4.24327776    1.47725102
Bq    1.87493668   -4.24327776    1.51450576
Bq    2.07229844   -4.24327776    1.55116834
Bq    2.26966020   -4.24327776    1.58723873
Bq    2.46702195   -4.24327776    1.62271692
Bq    2.66438371   -4.24327776    1.65760288
Bq    2.86174546   -4.24327776    1.69189660
Bq    3.05910722   -4.24327776    1.72559806
Bq    3.25646898   -4.24327776    1.75870724
Bq    3.45383073   -4.24327776    1.79122413
Bq    3.65119249   -4.24327776    1.82314871
Bq    3.84855425   -4.24327776    1.85448096
Bq    4.04591600   -4.24327776    1.88522087
Bq    4.24327776   -4.24327776    1.91536843
Bq    4.44063951   -4.24327776    1.94492363
Bq    4.63800127   -4.24327776    1.97388645
Bq    4.83536303   -4.24327776    2.00225689
Bq   -4.83536303   -4.04591600   -0.04821922
Bq   -4.63800127   -4.04591600    0.00659670
Bq   -4.44063951   -4.04591600    0.06082023
Bq   -4.24327776   -4.04591600    0.11445138
Bq   -4.04591600   -4.04591600    0.16749015
Bq   -3.84855425   -4.04591600    0.21993658
Bq   -3.65119249   -4.04591600    0.27179066
Bq   -3.45383073   -4.04591600    0.32305241
Bq   -3.25646898   -4.04591600    0.37372185
Bq   -3.05910722   -4.04591600    0.42379899
Bq   -2.86174546   -4.04591600    0.47328385
Bq   -2.66438371   -4.04591600    0.52217646
Bq   -2.46702195   -4.04591600    0.57047682
Bq   -2.26966020   -4.04591600    0.61818496
Bq   -2.07229844   -4.04591600    0.66530091
Bq   -1.87493668   -4.04591600    0.71182467
Bq   -1.67757493   -4.04591600    0.75775627
Bq   -1.48021317   -4.04591600    0.80309574
Bq   -1.28285142   -4.04591600    0.84784309
Bq   -1.08548966   -4.04591600    0.89199834
Bq   -0.88812790   -4.04591600    0.93556151
Bq   -0.69076615   -4.04591600    0.97853261
Bq   -0.49340439   -4.04591600    1.02091166
Bq   -0.29604263   -4.04591600    1.06269867
Bq   -0.09868088   -4.04591600    1.10389364
Bq    0.09868088   -4.04591600    1.14449659
Bq    0.29604263   -4.04591600    1.18450750
Bq    0.49340439   -4.04591600    1.22392637
Bq    0.69076615   -4.04591600    1.26275320
Bq    0.88812790   -4.04591600    1.30098798
Bq    1.08548966   -4.04591600    1.33863069
Bq    1.28285142   -4.04591600    1.37568133
Bq    1.48021317   -4.04591600    1.41213986
Bq    1.67757493   -4.04591600    1.44800628
Bq    1.87493668   -4.04591600    1.48328056
Bq    2.07229844   -4.04591600    1.51796268
Bq    2.26966020   -4.04591600    1.55205262
Bq    2.46702195   -4.04591600    1.58555036
Bq    2.66438371   -4.04591600    1.61845588
Bq    2.86174546   -4.04591600    1.65076916
Bq    3.05910722   -4.04591600    1.68249018
Bq    3.25646898   -4.04591600    1.71361892
Bq    3.45383073   -4.04591600    1.74415536
Bq    3.65119249   -4.04591600    1.77409949
Bq    3.84855425   -4.04591600    1.80345129
Bq    4.04591600   -4.04591600    1.83221076
Bq    4.24327776   -4.04591600    1.86037786
Bq    4.44063951   -4.04591600    1.88795260
Bq    4.63800127   -4.04591600    1.91493495
Bq    4.83536303   -4.04591600    1.94132492
Bq   -4.83536303   -3.84855425   -0.01150967
Bq   -4.63800127   -3.84855425    0.04132546
Bq   -4.44063951   -3.84855425    0.09356819
Bq   -4.24327776   -3.84855425    0.14521853
Bq   -4.04591600   -3.84855425    0.19627650
Bq   -3.84855425   -3.84855425    0.24674211
Bq   -3.65119249   -3.84855425    0.29661538
Bq   -3.45383073   -3.84855425    0.34589631
Bq   -3.25646898   -3.84855425    0.39458492
Bq   -3.05910722   -3.84855425    0.44268124
Bq   -2.86174546   -3.84855425    0.49018528
Bq   -2.66438371   -3.84855425    0.53709705
Bq   -2.46702195   -3.84855425    0.58341659
Bq   -2.26966020   -3.84855425    0.62914391
Bq   -2.07229844   -3.84855425    0.67427903
Bq   -1.87493668   -3.84855425    0.71882198
Bq   -1.67757493   -3.84855425    0.76277277
Bq   -1.48021317   -3.84855425    0.80613145
Bq   -1.28285142   -3.84855425    0.84889801
Bq   -1.08548966   -3.84855425    0.89107250
Bq   -0.88812790   -3.84855425    0.93265492
Bq   -0.69076615   -3.84855425    0.97364530
Bq   -0.49340439   -3.84855425    1.01404364
Bq   -0.29604263   -3.84855425    1.05384997
Bq   -0.09868088   -3.84855425    1.09306429
Bq    0.09868088   -3.84855425    1.13168660
Bq    0.29604263   -3.84855425    1.16971691
Bq    0.49340439   -3.84855425    1.20715520
Bq    0.69076615   -3.84855425    1.24400148
Bq    0.88812790   -3.84855425    1.28025572
Bq    1.08548966   -3.84855425    1.31591793
Bq    1.28285142   -3.84855425    1.35098806
Bq    1.48021317   -3.84855425    1.38546612
Bq    1.67757493   -3.84855425    1.41935207
Bq    1.87493668   -3.84855425    1.45264590
Bq    2.07229844   -3.84855425    1.48534757
Bq    2.26966020   -3.84855425    1.51745707
Bq    2.46702195   -3.84855425    1.54897438
Bq    2.66438371   -3.84855425    1.57989947
Bq    2.86174546   -3.84855425    1.61023231
Bq    3.05910722   -3.84855425    1.63997290
Bq    3.25646898   -3.84855425    1.66912121
Bq    3.45383073   -3.84855425    1.69767721
Bq    3.65119249   -3.84855425    1.72564091
Bq    3.84855425   -3.84855425    1.75301227
Bq    4.04591600   -3.84855425    1.77979128
Bq    4.24327776   -3.84855425    1.80597793
Bq    4.44063951   -3.84855425    1.83157221
Bq    4.63800127   -3.84855425    1.85657410
Bq    4.83536303   -3.84855425    1.88098360
Bq   -4.83536303   -3.65119249    0.02579054
Bq   -4.63800127   -3.65119249    0.07664488
Bq   -4.44063951   -3.65119249    0.12690681
Bq   -4.24327776   -3.65119249    0.17657635
Bq   -4.04591600   -3.65119249    0.22565351
Bq   -3.84855425   -3.65119249    0.27413830
Bq   -3.65119249   -3.65119249    0.32203074
Bq   -3.45383073   -3.65119249    0.36933085
Bq   -3.25646898   -3.65119249    0.41603863
Bq   -3.05910722   -3.65119249    0.46215411
Bq   -2.86174546   -3.65119249    0.50767731
Bq   -2.66438371   -3.65119249    0.55260825
Bq   -2.46702195   -3.65119249    0.59694695
Bq   -2.26966020   -3.65119249    0.64069343
Bq   -2.07229844   -3.65119249    0.68384772
Bq   -1.87493668   -3.65119249    0.72640984
Bq   -1.67757493   -3.65119249    0.76837982
Bq   -1.48021317   -3.65119249    0.80975768
Bq   -1.28285142   -3.65119249    0.85054345
Bq   -1.08548966   -3.65119249    0.89073716
Bq   -0.88812790   -3.65119249    0.93033882
Bq   -0.69076615   -3.65119249    0.96934846
Bq   -0.49340439   -3.65119249    1.00776610
Bq   -0.29604263   -3.65119249    1.04559174
Bq   -0.09868088   -3.65119249    1.08282540
Bq    0.09868088   -3.65119249    1.11946708
Bq    0.29604263   -3.65119249    1.15551678
Bq    0.49340439   -3.65119249    1.19097450
Bq    0.69076615   -3.65119249    1.22584023
Bq    0.88812790   -3.65119249    1.26011396
Bq    1.08548966   -3.65119249    1.29379566
Bq    1.28285142   -3.65119249    1.32688531
Bq    1.48021317   -3.65119249    1.35938291
Bq    1.67757493   -3.65119249    1.39128841
Bq    1.87493668   -3.65119249    1.42260179
Bq    2.07229844   -3.65119249    1.45332303
Bq    2.26966020   -3.65119249    1.48345211
Bq    2.46702195   -3.65119249    1.51298899
Bq    2.66438371   -3.65119249    1.54193366
Bq    2.86174546   -3.65119249    1.57028608
Bq    3.05910722   -3.65119249    1.59804625
Bq    3.25646898   -3.65119249    1.62521413
Bq    3.45383073   -3.65119249    1.65178971
Bq    3.65119249   -3.65119249    1.67777297
Bq    3.84855425   -3.65119249    1.70316389
Bq    4.04591600   -3.65119249    1.72796246
Bq    4.24327776   -3.65119249    1.75216866
Bq    4.44063951   -3.65119249    1.77578249
Bq    4.63800127   -3.65119249    1.79880392
Bq    4.83536303   -3.65119249    1.82123295
Bq   -4.83536303   -3.45383073    0.06368143
Bq   -4.63800127   -3.45383073    0.11255497
Bq   -4.44063951   -3.45383073    0.16083610
Bq   -4.24327776   -3.45383073    0.20852483
Bq   -4.04591600   -3.45383073    0.25562118
Bq   -3.84855425   -3.45383073    0.30212515
Bq   -3.65119249   -3.45383073    0.34803677
Bq   -3.45383073   -3.45383073    0.39335604
Bq   -3.25646898   -3.45383073    0.43808299
Bq   -3.05910722   -3.45383073    0.48221763
Bq   -2.86174546   -3.45383073    0.52575998
Bq   -2.66438371   -3.45383073    0.56871007
Bq   -2.46702195   -3.45383073    0.61106792
Bq   -2.26966020   -3.45383073    0.65283355
Bq   -2.07229844   -3.45383073    0.69400699
Bq   -1.87493668   -3.45383073    0.73458827
Bq   -1.67757493   -3.45383073    0.77457741
Bq   -1.48021317   -3.45383073    0.81397445
Bq   -1.28285142   -3.45383073    0.85277941
Bq   -1.08548966   -3.45383073    0.89099233
Bq   -0.88812790   -3.45383073    0.92861322
Bq   -0.69076615   -3.45383073    0.96564211
Bq   -0.49340439   -3.45383073    1.00207902
Bq   -0.29604263   -3.45383073    1.03792397
Bq   -0.09868088   -3.45383073    1.07317697
Bq    0.09868088   -3.45383073    1.10783802
Bq    0.29604263   -3.45383073    1.14190713
Bq    0.49340439   -3.45383073    1.17538428
Bq    0.69076615   -3.45383073    1.20826947
Bq    0.88812790   -3.45383073    1.24056268
Bq    1.08548966   -3.45383073    1.27226390
Bq    1.28285142   -3.45383073    1.30337309
Bq    1.48021317   -3.45383073    1.33389023
Bq    1.67757493   -3.45383073    1.36381529
Bq    1.87493668   -3.45383073    1.39314825
Bq    2.07229844   -3.45383073    1.42188908
Bq    2.26966020   -3.45383073    1.45003774
Bq    2.46702195   -3.45383073    1.47759421
Bq    2.66438371   -3.45383073    1.50455847
Bq    2.86174546   -3.45383073    1.53093049
Bq    3.05910722   -3.45383073    1.55671024
Bq    3.25646898   -3.45383073    1.58189770
Bq    3.45383073   -3.45383073    1.60649286
Bq    3.65119249   -3.45383073    1.63049569
Bq    3.84855425   -3.45383073    1.65390618
Bq    4.04591600   -3.45383073    1.67672431
Bq    4.24327776   -3.45383073    1.69895006
Bq    4.44063951   -3.45383073    1.72058343
Bq    4.63800127   -3.45383073    1.74162441
Bq    4.83536303   -3.45383073    1.76207298
Bq   -4.83536303   -3.25646898    0.10216301
Bq   -4.63800127   -3.25646898    0.14905576
Bq   -4.44063951   -3.25646898    0.19535608
Bq   -4.24327776   -3.25646898    0.24106401
Bq   -4.04591600   -3.25646898    0.28617954
Bq   -3.84855425   -3.25646898    0.33070269
Bq   -3.65119249   -3.25646898    0.37463347
Bq   -3.45383073   -3.25646898    0.41797191
Bq   -3.25646898   -3.25646898    0.46071801
Bq   -3.05910722   -3.25646898    0.50287180
Bq   -2.86174546   -3.25646898    0.54443330
Bq   -2.66438371   -3.25646898    0.58540253
Bq   -2.46702195   -3.25646898    0.62577951
Bq   -2.26966020   -3.25646898    0.66556428
Bq   -2.07229844   -3.25646898    0.70475686
Bq   -1.87493668   -3.25646898    0.74335728
Bq   -1.67757493   -3.25646898    0.78136557
Bq   -1.48021317   -3.25646898    0.81878177
Bq   -1.28285142   -3.25646898    0.85560590
Bq   -1.08548966   -3.25646898    0.89183801
Bq   -0.88812790   -3.25646898    0.92747811
Bq   -0.69076615   -3.25646898    0.96252624
Bq   -0.49340439   -3.25646898    0.99698242
Bq   -0.29604263   -3.25646898    1.03084667
Bq   -0.09868088   -3.25646898    1.06411900
Bq    0.09868088   -3.25646898    1.09679943
Bq    0.29604263   -3.25646898    1.12888794
Bq    0.49340439   -3.25646898    1.16038453
Bq    0.69076615   -3.25646898    1.19128920
Bq    0.88812790   -3.25646898    1.22160191
Bq    1.08548966   -3.25646898    1.25132265
Bq    1.28285142   -3.25646898    1.28045139
Bq    1.48021317   -3.25646898    1.30898810
Bq    1.67757493   -3.25646898    1.33693274
Bq    1.87493668   -3.25646898    1.36428530
Bq    2.07229844   -3.25646898    1.39104572
Bq    2.26966020   -3.25646898    1.41721398
Bq    2.46702195   -3.25646898    1.44279006
Bq    2.66438371   -3.25646898    1.46777392
Bq    2.86174546   -3.25646898    1.49216553
Bq    3.05910722   -3.25646898    1.51596488
Bq    3.25646898   -3.25646898    1.53917193
Bq    3.45383073   -3.25646898    1.56178668
Bq    3.65119249   -3.25646898    1.58380908
Bq    3.84855425   -3.25646898    1.60523914
Bq    4.04591600   -3.25646898    1.62607684
Bq    4.24327776   -3.25646898    1.64632215
Bq    4.44063951   -3.25646898    1.66597507
Bq    4.63800127   -3.25646898    1.68503559
Bq    4.83536303   -3.25646898    1.70350369
Bq   -4.83536303   -3.05910722    0.14123530
Bq   -4.63800127   -3.05910722    0.18614724
Bq   -4.44063951   -3.05910722    0.23046677
Bq   -4.24327776   -3.05910722    0.27419388
Bq   -4.04591600   -3.05910722    0.31732859
Bq   -3.84855425   -3.05910722    0.35987092
Bq   -3.65119249   -3.05910722    0.40182087
Bq   -3.45383073   -3.05910722    0.44317846
Bq   -3.25646898   -3.05910722    0.48394371
Bq   -3.05910722   -3.05910722    0.52411665
Bq   -2.86174546   -3.05910722    0.56369728
Bq   -2.66438371   -3.05910722    0.60268564
Bq   -2.46702195   -3.05910722    0.64108175
Bq   -2.26966020   -3.05910722    0.67888564
Bq   -2.07229844   -3.05910722    0.71609734
Bq   -1.87493668   -3.05910722    0.75271689
Bq   -1.67757493   -3.05910722    0.78874431
Bq   -1.48021317   -3.05910722    0.82417965
Bq   -1.28285142   -3.05910722    0.85902294
Bq   -1.08548966   -3.05910722    0.89327421
Bq   -0.88812790   -3.05910722    0.92693351
Bq   -0.69076615   -3.05910722    0.96000086
Bq   -0.49340439   -3.05910722    0.99247630
Bq   -0.29604263   -3.05910722    1.02435984
Bq   -0.09868088   -3.05910722    1.05565150
Bq    0.09868088   -3.05910722    1.08635130
Bq    0.29604263   -3.05910722    1.11645922
Bq    0.49340439   -3.05910722    1.14597526
Bq    0.69076615   -3.05910722    1.17489941
Bq    0.88812790   -3.05910722    1.20323164
Bq    1.08548966   -3.05910722    1.23097193
Bq    1.28285142   -3.05910722    1.25812023
Bq    1.48021317   -3.05910722    1.28467653
Bq    1.67757493   -3.05910722    1.31064078
Bq    1.87493668   -3.05910722    1.33601294
Bq    2.07229844   -3.05910722    1.36079298
Bq    2.26966020   -3.05910722    1.38498086
Bq    2.46702195   -3.05910722    1.40857655
Bq    2.66438371   -3.05910722    1.43158003
Bq    2.86174546   -3.05910722    1.45399125
Bq    3.05910722   -3.05910722    1.47581020
Bq    3.25646898   -3.05910722    1.49703685
Bq    3.45383073   -3.05910722    1.51767119
Bq    3.65119249   -3.05910722    1.53771318
Bq    3.84855425   -3.05910722    1.55716281
Bq    4.04591600   -3.05910722    1.57602007
Bq    4.24327776   -3.05910722    1.59428494
Bq    4.44063951   -3.05910722    1.61195742
Bq    4.63800127   -3.05910722    1.62903748
Bq    4.83536303   -3.05910722    1.64552511
Bq   -4.83536303   -2.86174546    0.18089830
Bq   -4.63800127   -2.86174546    0.22382945
Bq   -4.44063951   -2.86174546    0.26616818
Bq   -4.24327776   -2.86174546    0.30791448
Bq   -4.04591600   -2.86174546    0.34906837
Bq   -3.84855425   -2.86174546    0.38962987
Bq   -3.65119249   -2.86174546    0.42959898
Bq   -3.45383073   -2.86174546    0.46897573
Bq   -3.25646898   -2.86174546    0.50776012
Bq   -3.05910722   -2.86174546    0.54595219
Bq   -2.86174546   -2.86174546    0.58355195
Bq   -2.66438371   -2.86174546    0.62055943
Bq   -2.46702195   -2.86174546    0.65697466
Bq   -2.26966020   -2.86174546    0.69279766
Bq   -2.07229844   -2.86174546    0.72802846
Bq   -1.87493668   -2.86174546    0.76266711
Bq   -1.67757493   -2.86174546    0.79671365
Bq   -1.48021317   -2.86174546    0.83016810
Bq   -1.28285142   -2.86174546    0.86303052
Bq   -1.08548966   -2.86174546    0.89530095
Bq   -0.88812790   -2.86174546    0.92697942
Bq   -0.69076615   -2.86174546    0.95806598
Bq   -0.49340439   -2.86174546    0.98856066
Bq   -0.29604263   -2.86174546    1.01846348
Bq   -0.09868088   -2.86174546    1.04777447
Bq    0.09868088   -2.86174546    1.07649363
Bq    0.29604263   -2.86174546    1.10462097
Bq    0.49340439   -2.86174546    1.13215647
Bq    0.69076615   -2.86174546    1.15910012
Bq    0.88812790   -2.86174546    1.18545188
Bq    1.08548966   -2.86174546    1.21121174
Bq    1.28285142   -2.86174546    1.23637963
Bq    1.48021317   -2.86174546    1.26095554
Bq    1.67757493   -2.86174546    1.28493941
Bq    1.87493668   -2.86174546    1.30833120
Bq    2.07229844   -2.86174546    1.33113087
Bq    2.26966020   -2.86174546    1.35333839
Bq    2.46702195   -2.86174546    1.37495371
Bq    2.66438371   -2.86174546    1.39597681
Bq    2.86174546   -2.86174546    1.41640766
Bq    3.05910722   -2.86174546    1.43624622
Bq    3.25646898   -2.86174546    1.45549248
Bq    3.45383073   -2.86174546    1.47414641
Bq    3.65119249   -2.86174546    1.49220798
Bq    3.84855425   -2.86174546    1.50967720
Bq    4.04591600   -2.86174546    1.52655402
Bq    4.24327776   -2.86174546    1.54283846
Bq    4.44063951   -2.86174546    1.55853048
Bq    4.63800127   -2.86174546    1.57363008
Bq    4.83536303   -2.86174546    1.58813725
Bq   -4.83536303   -2.66438371    0.22115203
Bq   -4.63800127   -2.66438371    0.26210239
Bq   -4.44063951   -2.66438371    0.30246032
Bq   -4.24327776   -2.66438371    0.34222581
Bq   -4.04591600   -2.66438371    0.38139889
Bq   -3.84855425   -2.66438371    0.41997955
Bq   -3.65119249   -2.66438371    0.45796783
Bq   -3.45383073   -2.66438371    0.49536373
Bq   -3.25646898   -2.66438371    0.53216726
Bq   -3.05910722   -2.66438371    0.56837846
Bq   -2.86174546   -2.66438371    0.60399734
Bq   -2.66438371   -2.66438371    0.63902393
Bq   -2.46702195   -2.66438371    0.67345826
Bq   -2.26966020   -2.66438371    0.70730035
Bq   -2.07229844   -2.66438371    0.74055025
Bq   -1.87493668   -2.66438371    0.77320798
Bq   -1.67757493   -2.66438371    0.80527361
Bq   -1.48021317   -2.66438371    0.83674716
Bq   -1.28285142   -2.66438371    0.86762868
Bq   -1.08548966   -2.66438371    0.89791824
Bq   -0.88812790   -2.66438371    0.92761586
Bq   -0.69076615   -2.66438371    0.95672160
Bq   -0.49340439   -2.66438371    0.98523550
Bq   -0.29604263   -2.66438371    1.01315759
Bq   -0.09868088   -2.66438371    1.04048790
Bq    0.09868088   -2.66438371    1.06722643
Bq    0.29604263   -2.66438371    1.09337319
Bq    0.49340439   -2.66438371    1.11892816
Bq    0.69076615   -2.66438371    1.14389133
Bq    0.88812790   -2.66438371    1.16826265
Bq    1.08548966   -2.66438371    1.19204209
Bq    1.28285142   -2.66438371    1.21522961
Bq    1.48021317   -2.66438371    1.23782514
Bq    1.67757493   -2.66438371    1.25982866
Bq    1.87493668   -2.66438371    1.28124010
Bq    2.07229844   -2.66438371    1.30205943
Bq    2.26966020   -2.66438371    1.32228659
Bq    2.46702195   -2.66438371    1.34192157
Bq    2.66438371   -2.66438371    1.36096431
Bq    2.86174546   -2.66438371    1.37941478
Bq    3.05910722   -2.66438371    1.39727297
Bq    3.25646898   -2.66438371    1.41453883
Bq    3.45383073   -2.66438371    1.43121236
Bq    3.65119249   -2.66438371    1.44729353
Bq    3.84855425   -2.66438371    1.46278232
Bq    4.04591600   -2.66438371    1.47767871
Bq    4.24327776   -2.66438371    1.49198270
Bq    4.44063951   -2.66438371    1.50569428
Bq    4.63800127   -2.66438371    1.51881342
Bq    4.83536303   -2.66438371    1.53134012
Bq   -4.83536303   -2.46702195    0.26199651
Bq   -4.63800127   -2.46702195    0.30096608
Bq   -4.44063951   -2.46702195    0.33934321
Bq   -4.24327776   -2.46702195    0.37712790
Bq   -4.04591600   -2.46702195    0.41432016
Bq   -3.84855425   -2.46702195    0.45092000
Bq   -3.65119249   -2.46702195    0.48692743
Bq   -3.45383073   -2.46702195    0.52234248
Bq   -3.25646898   -2.46702195    0.55716516
Bq   -3.05910722   -2.46702195    0.59139548
Bq   -2.86174546   -2.46702195    0.62503347
Bq   -2.66438371   -2.46702195    0.65807916
Bq   -2.46702195   -2.46702195    0.69053258
Bq   -2.26966020   -2.46702195    0.72239375
Bq   -2.07229844   -2.46702195    0.75366272
Bq   -1.87493668   -2.46702195    0.78433952
Bq   -1.67757493   -2.46702195    0.81442421
Bq   -1.48021317   -2.46702195    0.84391683
Bq   -1.28285142   -2.46702195    0.87281744
Bq   -1.08548966   -2.46702195    0.90112609
Bq   -0.88812790   -2.46702195    0.92884283
Bq   -0.69076615   -2.46702195    0.95596773
Bq   -0.49340439   -2.46702195    0.98250083
Bq   -0.29604263   -2.46702195    1.00844218
Bq   -0.09868088   -2.46702195    1.03379179
Bq    0.09868088   -2.46702195    1.05854969
Bq    0.29604263   -2.46702195    1.08271588
Bq    0.49340439   -2.46702195    1.10629034
Bq    0.69076615   -2.46702195    1.12927305
Bq    0.88812790   -2.46702195    1.15166396
Bq    1.08548966   -2.46702195    1.17346301
Bq    1.28285142   -2.46702195    1.19467017
Bq    1.48021317   -2.46702195    1.21528537
Bq    1.67757493   -2.46702195    1.23530855
Bq    1.87493668   -2.46702195    1.25473967