# nmr=giao b3lyp/6-31G* nosymm geom=connectivity guess=huckel

input

0 1
C    -2.10492859   -0.40544908   -0.41399758
C    -1.57413627   -1.44443762    0.43952318
C    -0.27524384   -2.03715447    0.68150692
C     0.98925069   -1.97010369   -0.01596559
C    -1.80134717    0.98287000   -0.69128649
C     1.80139548   -0.98285678   -0.69116102
C     2.10508157    0.40550904   -0.41388700
C    -0.98917035    1.97007923   -0.01614250
C     1.57422557    1.44452646    0.43956190
C     0.27525707    2.03716985    0.68154555
As   -4.14653131    0.45386251   -2.04166062
As   -2.95820800    3.41262228   -1.26259526
As   -0.97754635    4.43318929    1.18504544
As    2.07068811    3.59845679    2.07482491
As    4.20466989    2.10610684    0.04472683
As    4.14637186   -0.45393746   -2.04190475
As    2.95839046   -3.41260555   -1.26230525
As    0.97713494   -4.43341723    1.18482132
As   -2.07077535   -3.59842817    2.07478458
As   -4.20460740   -2.10596253    0.04475702
N    -3.35744754   -0.72606930   -0.85160154
N    -2.79202636    1.57061324   -1.42703717
N    -1.59803142    3.19128525   -0.03299431
N     0.38351129    3.19039152    1.40695183
N     2.57176343    2.25188232    0.90464797
N     3.35753147    0.72604394   -0.85168860
N     2.79200318   -1.57063433   -1.42696270
N     1.59811860   -3.19133503   -0.03280919
N    -0.38368919   -3.19044331    1.40676578
N    -2.57170446   -2.25177402    0.90453633
Bq   -4.70286460   -4.70286460    4.68775131
Bq   -4.58380473   -4.70286460    4.72154782
Bq   -4.46474487   -4.70286460    4.74535942
Bq   -4.34568501   -4.70286460    4.75803688
Bq   -4.22662514   -4.70286460    4.76647533
Bq   -4.10756528   -4.70286460    4.77793706
Bq   -3.98850542   -4.70286460    4.79351712
Bq   -3.86944555   -4.70286460    4.80820359
Bq   -3.75038569   -4.70286460    4.81590672
Bq   -3.63132583   -4.70286460    4.81426181
Bq   -3.51226596   -4.70286460    4.80566355
Bq   -3.39320610   -4.70286460    4.79477828
Bq   -3.27414624   -4.70286460    4.78514961
Bq   -3.15508638   -4.70286460    4.77730417
Bq   -3.03602651   -4.70286460    4.76906958
Bq   -2.91696665   -4.70286460    4.75727942
Bq   -2.79790679   -4.70286460    4.73953868
Bq   -2.67884692   -4.70286460    4.71514206
Bq   -2.55978706   -4.70286460    4.68497758
Bq   -2.44072720   -4.70286460    4.65078851
Bq   -2.32166733   -4.70286460    4.61431797
Bq   -2.20260747   -4.70286460    4.57671535
Bq   -2.08354761   -4.70286460    4.53833418
Bq   -1.96448774   -4.70286460    4.49885218
Bq   -1.84542788   -4.70286460    4.45755565
Bq   -1.72636802   -4.70286460    4.41363762
Bq   -1.60730815   -4.70286460    4.36641665
Bq   -1.48824829   -4.70286460    4.31544608
Bq   -1.36918843   -4.70286460    4.26052851
Bq   -1.25012856   -4.70286460    4.20166988
Bq   -1.13106870   -4.70286460    4.13900901
Bq   -1.01200884   -4.70286460    4.07274838
Bq   -0.89294897   -4.70286460    4.00310052
Bq   -0.77388911   -4.70286460    3.93025428
Bq   -0.65482925   -4.70286460    3.85435892
Bq   -0.53576938   -4.70286460    3.77552130
Bq   -0.41670952   -4.70286460    3.69381094
Bq   -0.29764966   -4.70286460    3.60926867
Bq   -0.17858979   -4.70286460    3.52191571
Bq   -0.05952993   -4.70286460    3.43176159
Bq    0.05952993   -4.70286460    3.33880957
Bq    0.17858979   -4.70286460    3.24305957
Bq    0.29764966   -4.70286460    3.14450811
Bq    0.41670952   -4.70286460    3.04314554
Bq    0.53576938   -4.70286460    2.93895042
Bq    0.65482925   -4.70286460    2.83188178
Bq    0.77388911   -4.70286460    2.72186994
Bq    0.89294897   -4.70286460    2.60880791
Bq    1.01200884   -4.70286460    2.49254630
Bq    1.13106870   -4.70286460    2.37289616
Bq    1.25012856   -4.70286460    2.24964486
Bq    1.36918843   -4.70286460    2.12258987
Bq    1.48824829   -4.70286460    1.99159232
Bq    1.60730815   -4.70286460    1.85664622
Bq    1.72636802   -4.70286460    1.71794899
Bq    1.84542788   -4.70286460    1.57594730
Bq    1.96448774   -4.70286460    1.43132264
Bq    2.08354761   -4.70286460    1.28488202
Bq    2.20260747   -4.70286460    1.13733924
Bq    2.32166733   -4.70286460    0.98901666
Bq    2.44072720   -4.70286460    0.83956088
Bq    2.55978706   -4.70286460    0.68782264
Bq    2.67884692   -4.70286460    0.53205896
Bq    2.79790679   -4.70286460    0.37052674
Bq    2.91696665   -4.70286460    0.20233812
Bq    3.03602651   -4.70286460    0.02819858
Bq    3.15508638   -4.70286460   -0.14949670
Bq    3.27414624   -4.70286460   -0.32758111
Bq    3.39320610   -4.70286460   -0.50388207
Bq    3.51226596   -4.70286460   -0.67892606
Bq    3.63132583   -4.70286460   -0.85625650
Bq    3.75038569   -4.70286460   -1.04053957
Bq    3.86944555   -4.70286460   -1.23416980
Bq    3.98850542   -4.70286460   -1.43478235
Bq    4.10756528   -4.70286460   -1.63628733
Bq    4.22662514   -4.70286460   -1.83367272
Bq    4.34568501   -4.70286460   -2.02803347
Bq    4.46474487   -4.70286460   -2.22663180
Bq    4.58380473   -4.70286460   -2.43636278
Bq    4.70286460   -4.70286460   -2.65607713
Bq   -4.70286460   -4.58380473    4.48326784
Bq   -4.58380473   -4.58380473    4.51237816
Bq   -4.46474487   -4.58380473    4.53005438
Bq   -4.34568501   -4.58380473    4.54390922
Bq   -4.22662514   -4.58380473    4.56152269
Bq   -4.10756528   -4.58380473    4.58333298
Bq   -3.98850542   -4.58380473    4.60335178
Bq   -3.86944555   -4.58380473    4.61526113
Bq   -3.75038569   -4.58380473    4.61753385
Bq   -3.63132583   -4.58380473    4.61377214
Bq   -3.51226596   -4.58380473    4.60922029
Bq   -3.39320610   -4.58380473    4.60692387
Bq   -3.27414624   -4.58380473    4.60621151
Bq   -3.15508638   -4.58380473    4.60382420
Bq   -3.03602651   -4.58380473    4.59626368
Bq   -2.91696665   -4.58380473    4.58167427
Bq   -2.79790679   -4.58380473    4.56039239
Bq   -2.67884692   -4.58380473    4.53429771
Bq   -2.55978706   -4.58380473    4.50565287
Bq   -2.44072720   -4.58380473    4.47611645
Bq   -2.32166733   -4.58380473    4.44628657
Bq   -2.20260747   -4.58380473    4.41577444
Bq   -2.08354761   -4.58380473    4.38359478
Bq   -1.96448774   -4.58380473    4.34862211
Bq   -1.84542788   -4.58380473    4.30993763
Bq   -1.72636802   -4.58380473    4.26699913
Bq   -1.60730815   -4.58380473    4.21965145
Bq   -1.48824829   -4.58380473    4.16803662
Bq   -1.36918843   -4.58380473    4.11246714
Bq   -1.25012856   -4.58380473    4.05330884
Bq   -1.13106870   -4.58380473    3.99089720
Bq   -1.01200884   -4.58380473    3.92549189
Bq   -0.89294897   -4.58380473    3.85726336
Bq   -0.77388911   -4.58380473    3.78630053
Bq   -0.65482925   -4.58380473    3.71262924
Bq   -0.53576938   -4.58380473    3.63623345
Bq   -0.41670952   -4.58380473    3.55707468
Bq   -0.29764966   -4.58380473    3.47510723
Bq   -0.17858979   -4.58380473    3.39028911
Bq   -0.05952993   -4.58380473    3.30258902
Bq    0.05952993   -4.58380473    3.21199038
Bq    0.17858979   -4.58380473    3.11849310
Bq    0.29764966   -4.58380473    3.02211358
Bq    0.41670952   -4.58380473    2.92288294
Bq    0.53576938   -4.58380473    2.82084300
Bq    0.65482925   -4.58380473    2.71603929
Bq    0.77388911   -4.58380473    2.60851015
Bq    0.89294897   -4.58380473    2.49827146
Bq    1.01200884   -4.58380473    2.38529729
Bq    1.13106870   -4.58380473    2.26949859
Bq    1.25012856   -4.58380473    2.15070483
Bq    1.36918843   -4.58380473    2.02865627
Bq    1.48824829   -4.58380473    1.90301738
Bq    1.60730815   -4.58380473    1.77342231
Bq    1.72636802   -4.58380473    1.63955856
Bq    1.84542788   -4.58380473    1.50128410
Bq    1.96448774   -4.58380473    1.35875415
Bq    2.08354761   -4.58380473    1.21251097
Bq    2.20260747   -4.58380473    1.06347344
Bq    2.32166733   -4.58380473    0.91276713
Bq    2.44072720   -4.58380473    0.76137746
Bq    2.55978706   -4.58380473    0.60969333
Bq    2.67884692   -4.58380473    0.45711677
Bq    2.79790679   -4.58380473    0.30198937
Bq    2.91696665   -4.58380473    0.14204865
Bq    3.03602651   -4.58380473   -0.02458488
Bq    3.15508638   -4.58380473   -0.19824746
Bq    3.27414624   -4.58380473   -0.37708323
Bq    3.39320610   -4.58380473   -0.55759375
Bq    3.51226596   -4.58380473   -0.73651983
Bq    3.63132583   -4.58380473   -0.91318992
Bq    3.75038569   -4.58380473   -1.09064943
Bq    3.86944555   -4.58380473   -1.27414248
Bq    3.98850542   -4.58380473   -1.46727114
Bq    4.10756528   -4.58380473   -1.66850811
Bq    4.22662514   -4.58380473   -1.87153529
Bq    4.34568501   -4.58380473   -2.07036430
Bq    4.46474487   -4.58380473   -2.26543325
Bq    4.58380473   -4.58380473   -2.46432208
Bq    4.70286460   -4.58380473   -2.67464349
Bq   -4.70286460   -4.46474487    4.27491104
Bq   -4.58380473   -4.46474487    4.29788597
Bq   -4.46474487   -4.46474487    4.31698966
Bq   -4.34568501   -4.46474487    4.34032510
Bq   -4.22662514   -4.46474487    4.36803860
Bq   -4.10756528   -4.46474487    4.39337520
Bq   -3.98850542   -4.46474487    4.40977244
Bq   -3.86944555   -4.46474487    4.41638363
Bq   -3.75038569   -4.46474487    4.41781092
Bq   -3.63132583   -4.46474487    4.41968269
Bq   -3.51226596   -4.46474487    4.42444117
Bq   -3.39320610   -4.46474487    4.43027682
Bq   -3.27414624   -4.46474487    4.43308303
Bq   -3.15508638   -4.46474487    4.42935650
Bq   -3.03602651   -4.46474487    4.41803448
Bq   -2.91696665   -4.46474487    4.40053771
Bq   -2.79790679   -4.46474487    4.37953407
Bq   -2.67884692   -4.46474487    4.35743951
Bq   -2.55978706   -4.46474487    4.33545064
Bq   -2.44072720   -4.46474487    4.31336820
Bq   -2.32166733   -4.46474487    4.29002205
Bq   -2.20260747   -4.46474487    4.26392342
Bq   -2.08354761   -4.46474487    4.23382154
Bq   -1.96448774   -4.46474487    4.19900318
Bq   -1.84542788   -4.46474487    4.15933005
Bq   -1.72636802   -4.46474487    4.11510059
Bq   -1.60730815   -4.46474487    4.06684398
Bq   -1.48824829   -4.46474487    4.01513012
Bq   -1.36918843   -4.46474487    3.96043943
Bq   -1.25012856   -4.46474487    3.90310077
Bq   -1.13106870   -4.46474487    3.84328428
Bq   -1.01200884   -4.46474487    3.78102797
Bq   -0.89294897   -4.46474487    3.71627825
Bq   -0.77388911   -4.46474487    3.64893021
Bq   -0.65482925   -4.46474487    3.57886020
Bq   -0.53576938   -4.46474487    3.50594803
Bq   -0.41670952   -4.46474487    3.43008974
Bq   -0.29764966   -4.46474487    3.35120309
Bq   -0.17858979   -4.46474487    3.26922853
Bq   -0.05952993   -4.46474487    3.18412789
Bq    0.05952993   -4.46474487    3.09588264
Bq    0.17858979   -4.46474487    3.00449267
Bq    0.29764966   -4.46474487    2.90997635
Bq    0.41670952   -4.46474487    2.81237167
Bq    0.53576938   -4.46474487    2.71173801
Bq    0.65482925   -4.46474487    2.60815744
Bq    0.77388911   -4.46474487    2.50173379
Bq    0.89294897   -4.46474487    2.39258708
Bq    1.01200884   -4.46474487    2.28084086
Bq    1.13106870   -4.46474487    2.16659991
Bq    1.25012856   -4.46474487    2.04991777
Bq    1.36918843   -4.46474487    1.93075633
Bq    1.48824829   -4.46474487    1.80894541
Bq    1.60730815   -4.46474487    1.68415614
Bq    1.72636802   -4.46474487    1.55590808
Bq    1.84542788   -4.46474487    1.42363134
Bq    1.96448774   -4.46474487    1.28679680
Bq    2.08354761   -4.46474487    1.14510608
Bq    2.20260747   -4.46474487    0.99869752
Bq    2.32166733   -4.46474487    0.84828448
Bq    2.44072720   -4.46474487    0.69511784
Bq    2.55978706   -4.46474487    0.54068649
Bq    2.67884692   -4.46474487    0.38616073
Bq    2.79790679   -4.46474487    0.23173997
Bq    2.91696665   -4.46474487    0.07622778
Bq    3.03602651   -4.46474487   -0.08279164
Bq    3.15508638   -4.46474487   -0.24798596
Bq    3.27414624   -4.46474487   -0.42077575
Bq    3.39320610   -4.46474487   -0.60009807
Bq    3.51226596   -4.46474487   -0.78244946
Bq    3.63132583   -4.46474487   -0.96372311
Bq    3.75038569   -4.46474487   -1.14210933
Bq    3.86944555   -4.46474487   -1.32005020
Bq    3.98850542   -4.46474487   -1.50317394
Bq    4.10756528   -4.46474487   -1.69608258
Bq    4.22662514   -4.46474487   -1.89792931
Bq    4.34568501   -4.46474487   -2.10215159
Bq    4.46474487   -4.46474487   -2.30199437
Bq    4.58380473   -4.46474487   -2.49760391
Bq    4.70286460   -4.46474487   -2.69708317
Bq   -4.70286460   -4.34568501    4.06153163
Bq   -4.58380473   -4.34568501    4.08568395
Bq   -4.46474487   -4.34568501    4.11426823
Bq   -4.34568501   -4.34568501    4.14760802
Bq   -4.22662514   -4.34568501    4.17838296
Bq   -4.10756528   -4.34568501    4.19964476
Bq   -3.98850542   -4.34568501    4.21095677
Bq   -3.86944555   -4.34568501    4.21772111
Bq   -3.75038569   -4.34568501    4.22588082
Bq   -3.63132583   -4.34568501    4.23731989
Bq   -3.51226596   -4.34568501    4.24923205
Bq   -3.39320610   -4.34568501    4.25687355
Bq   -3.27414624   -4.34568501    4.25694324
Bq   -3.15508638   -4.34568501    4.24926923
Bq   -3.03602651   -4.34568501    4.23626957
Bq   -2.91696665   -4.34568501    4.22114141
Bq   -2.79790679   -4.34568501    4.20612723
Bq   -2.67884692   -4.34568501    4.19170740
Bq   -2.55978706   -4.34568501    4.17680889
Bq   -2.44072720   -4.34568501    4.15960669
Bq   -2.32166733   -4.34568501    4.13838292
Bq   -2.20260747   -4.34568501    4.11208379
Bq   -2.08354761   -4.34568501    4.08047229
Bq   -1.96448774   -4.34568501    4.04396795
Bq   -1.84542788   -4.34568501    4.00334156
Bq   -1.72636802   -4.34568501    3.95941453
Bq   -1.60730815   -4.34568501    3.91284983
Bq   -1.48824829   -4.34568501    3.86405722
Bq   -1.36918843   -4.34568501    3.81319232
Bq   -1.25012856   -4.34568501    3.76021202
Bq   -1.13106870   -4.34568501    3.70495000
Bq   -1.01200884   -4.34568501    3.64718704
Bq   -0.89294897   -4.34568501    3.58670342
Bq   -0.77388911   -4.34568501    3.52331015
Bq   -0.65482925   -4.34568501    3.45686228
Bq   -0.53576938   -4.34568501    3.38725942
Bq   -0.41670952   -4.34568501    3.31443897
Bq   -0.29764966   -4.34568501    3.23836637
Bq   -0.17858979   -4.34568501    3.15902534
Bq   -0.05952993   -4.34568501    3.07640973
Bq    0.05952993   -4.34568501    2.99051786
Bq    0.17858979   -4.34568501    2.90134962
Bq    0.29764966   -4.34568501    2.80890654
Bq    0.41670952   -4.34568501    2.71319457
Bq    0.53576938   -4.34568501    2.61422983
Bq    0.65482925   -4.34568501    2.51204672
Bq    0.77388911   -4.34568501    2.40670768
Bq    0.89294897   -4.34568501    2.29831297
Bq    1.01200884   -4.34568501    2.18700741
Bq    1.13106870   -4.34568501    2.07297988
Bq    1.25012856   -4.34568501    1.95645003
Bq    1.36918843   -4.34568501    1.83763699
Bq    1.48824829   -4.34568501    1.71670704
Bq    1.60730815   -4.34568501    1.59370328
Bq    1.72636802   -4.34568501    1.46847007
Bq    1.84542788   -4.34568501    1.34059768
Bq    1.96448774   -4.34568501    1.20942316
Bq    2.08354761   -4.34568501    1.07412516
Bq    2.20260747   -4.34568501    0.93393300
Bq    2.32166733   -4.34568501    0.78842722
Bq    2.44072720   -4.34568501    0.63784496
Bq    2.55978706   -4.34568501    0.48324014
Bq    2.67884692   -4.34568501    0.32633077
Bq    2.79790679   -4.34568501    0.16894205
Bq    2.91696665   -4.34568501    0.01214716
Bq    3.03602651   -4.34568501   -0.14453410
Bq    3.15508638   -4.34568501   -0.30334402
Bq    3.27414624   -4.34568501   -0.46747956
Bq    3.39320610   -4.34568501   -0.63935860
Bq    3.51226596   -4.34568501   -0.81880907
Bq    3.63132583   -4.34568501   -1.00252966
Bq    3.75038569   -4.34568501   -1.18577641
Bq    3.86944555   -4.34568501   -1.36574294
Bq    3.98850542   -4.34568501   -1.54431307
Bq    4.10756528   -4.34568501   -1.72742971
Bq    4.22662514   -4.34568501   -1.92049488
Bq    4.34568501   -4.34568501   -2.12307184
Bq    4.46474487   -4.34568501   -2.32821221
Bq    4.58380473   -4.34568501   -2.52859557
Bq    4.70286460   -4.34568501   -2.72454546
Bq   -4.70286460   -4.22662514    3.85002468
Bq   -4.58380473   -4.22662514    3.88335201
Bq   -4.46474487   -4.22662514    3.92203633
Bq   -4.34568501   -4.22662514    3.95843756
Bq   -4.22662514   -4.22662514    3.98499632
Bq   -4.10756528   -4.22662514    4.00131612
Bq   -3.98850542   -4.22662514    4.01340739
Bq   -3.86944555   -4.22662514    4.02757477
Bq   -3.75038569   -4.22662514    4.04531302
Bq   -3.63132583   -4.22662514    4.06299605
Bq   -3.51226596   -4.22662514    4.07537961
Bq   -3.39320610   -4.22662514    4.07943753
Bq   -3.27414624   -4.22662514    4.07586371
Bq   -3.15508638   -4.22662514    4.06792866
Bq   -3.03602651   -4.22662514    4.05912666
Bq   -2.91696665   -4.22662514    4.05129920
Bq   -2.79790679   -4.22662514    4.04409437
Bq   -2.67884692   -4.22662514    4.03562298
Bq   -2.55978706   -4.22662514    4.02362128
Bq   -2.44072720   -4.22662514    4.00643629
Bq   -2.32166733   -4.22662514    3.98347823
Bq   -2.20260747   -4.22662514    3.95514334
Bq   -2.08354761   -4.22662514    3.92242117
Bq   -1.96448774   -4.22662514    3.88643780
Bq   -1.84542788   -4.22662514    3.84810975
Bq   -1.72636802   -4.22662514    3.80797536
Bq   -1.60730815   -4.22662514    3.76618566
Bq   -1.48824829   -4.22662514    3.72259506
Bq   -1.36918843   -4.22662514    3.67688855
Bq   -1.25012856   -4.22662514    3.62869882
Bq   -1.13106870   -4.22662514    3.57768982
Bq   -1.01200884   -4.22662514    3.52360188
Bq   -0.89294897   -4.22662514    3.46626485
Bq   -0.77388911   -4.22662514    3.40559021
Bq   -0.65482925   -4.22662514    3.34155248
Bq   -0.53576938   -4.22662514    3.27416792
Bq   -0.41670952   -4.22662514    3.20347515
Bq   -0.29764966   -4.22662514    3.12951984
Bq   -0.17858979   -4.22662514    3.05234390
Bq   -0.05952993   -4.22662514    2.97197847
Bq    0.05952993   -4.22662514    2.88843998
Bq    0.17858979   -4.22662514    2.80172832
Bq    0.29764966   -4.22662514    2.71182691
Bq    0.41670952   -4.22662514    2.61870442
Bq    0.53576938   -4.22662514    2.52231876
Bq    0.65482925   -4.22662514    2.42262411
Bq    0.77388911   -4.22662514    2.31958169
Bq    0.89294897   -4.22662514    2.21317512
Bq    1.01200884   -4.22662514    2.10342973
Bq    1.13106870   -4.22662514    1.99043395
Bq    1.25012856   -4.22662514    1.87435783
Bq    1.36918843   -4.22662514    1.75546099
Bq    1.48824829   -4.22662514    1.63407942
Bq    1.60730815   -4.22662514    1.51058041
Bq    1.72636802   -4.22662514    1.38527896
Bq    1.84542788   -4.22662514    1.25832068
Bq    1.96448774   -4.22662514    1.12955459
Bq    2.08354761   -4.22662514    0.99844239
Bq    2.20260747   -4.22662514    0.86406766
Bq    2.32166733   -4.22662514    0.72530440
Bq    2.44072720   -4.22662514    0.58116319
Bq    2.55978706   -4.22662514    0.43124792
Bq    2.67884692   -4.22662514    0.27614851
Bq    2.79790679   -4.22662514    0.11751811
Bq    2.91696665   -4.22662514   -0.04237937
Bq    3.03602651   -4.22662514   -0.20165456
Bq    3.15508638   -4.22662514   -0.35995538
Bq    3.27414624   -4.22662514   -0.51912312
Bq    3.39320610   -4.22662514   -0.68265189
Bq    3.51226596   -4.22662514   -0.85381202
Bq    3.63132583   -4.22662514   -1.03329723
Bq    3.75038569   -4.22662514   -1.21808119
Bq    3.86944555   -4.22662514   -1.40291949
Bq    3.98850542   -4.22662514   -1.58418590
Bq    4.10756528   -4.22662514   -1.76337504
Bq    4.22662514   -4.22662514   -1.94679145
Bq    4.34568501   -4.22662514   -2.14044546
Bq    4.46474487   -4.22662514   -2.34394051
Bq    4.58380473   -4.22662514   -2.54971715
Bq    4.70286460   -4.22662514   -2.75013529
Bq   -4.70286460   -4.10756528    3.64765239
Bq   -4.58380473   -4.10756528    3.69132829
Bq   -4.46474487   -4.10756528    3.73353891
Bq   -4.34568501   -4.10756528    3.76586534
Bq   -4.22662514   -4.10756528    3.78748210
Bq   -4.10756528   -4.10756528    3.80479338
Bq   -3.98850542   -4.10756528    3.82460093
Bq   -3.86944555   -4.10756528    3.84828364
Bq   -3.75038569   -4.10756528    3.87158896
Bq   -3.63132583   -4.10756528    3.88882145
Bq   -3.51226596   -4.10756528    3.89717666
Bq   -3.39320610   -4.10756528    3.89810509
Bq   -3.27414624   -4.10756528    3.89558478
Bq   -3.15508638   -4.10756528    3.89325224
Bq   -3.03602651   -4.10756528    3.89243738
Bq   -2.91696665   -4.10756528    3.89195233
Bq   -2.79790679   -4.10756528    3.88922121
Bq   -2.67884692   -4.10756528    3.88176883
Bq   -2.55978706   -4.10756528    3.86824864
Bq   -2.44072720   -4.10756528    3.84870026
Bq   -2.32166733   -4.10756528    3.82418546
Bq   -2.20260747   -4.10756528    3.79615919
Bq   -2.08354761   -4.10756528    3.76590329
Bq   -1.96448774   -4.10756528    3.73419946
Bq   -1.84542788   -4.10756528    3.70126219
Bq   -1.72636802   -4.10756528    3.66685527
Bq   -1.60730815   -4.10756528    3.63048737
Bq   -1.48824829   -4.10756528    3.59160141
Bq   -1.36918843   -4.10756528    3.54971023
Bq   -1.25012856   -4.10756528    3.50446646
Bq   -1.13106870   -4.10756528    3.45567687
Bq   -1.01200884   -4.10756528    3.40328116
Bq   -0.89294897   -4.10756528    3.34731450
Bq   -0.77388911   -4.10756528    3.28786838
Bq   -0.65482925   -4.10756528    3.22505794
Bq   -0.53576938   -4.10756528    3.15899880
Bq   -0.41670952   -4.10756528    3.08979320
Bq   -0.29764966   -4.10756528    3.01752332
Bq   -0.17858979   -4.10756528    2.94224942
Bq   -0.05952993   -4.10756528    2.86401044
Bq    0.05952993   -4.10756528    2.78282533
Bq    0.17858979   -4.10756528    2.69869399
Bq    0.29764966   -4.10756528    2.61159730
Bq    0.41670952   -4.10756528    2.52149614
Bq    0.53576938   -4.10756528    2.42833008
Bq    0.65482925   -4.10756528    2.33201677
Bq    0.77388911   -4.10756528    2.23245382
Bq    0.89294897   -4.10756528    2.12952548
Bq    1.01200884   -4.10756528    2.02311649
Bq    1.13106870   -4.10756528    1.91313524
Bq    1.25012856   -4.10756528    1.79954647
Bq    1.36918843   -4.10756528    1.68241044
Bq    1.48824829   -4.10756528    1.56192030
Bq    1.60730815   -4.10756528    1.43842342
Bq    1.72636802   -4.10756528    1.31240693
Bq    1.84542788   -4.10756528    1.18442794
Bq    1.96448774   -4.10756528    1.05497783
Bq    2.08354761   -4.10756528    0.92429286
Bq    2.20260747   -4.10756528    0.79215862
Bq    2.32166733   -4.10756528    0.65779350
Bq    2.44072720   -4.10756528    0.51991579
Bq    2.55978706   -4.10756528    0.37707067
Bq    2.67884692   -4.10756528    0.22819652
Bq    2.79790679   -4.10756528    0.07325387
Bq    2.91696665   -4.10756528   -0.08641055
Bq    3.03602651   -4.10756528   -0.24832140
Bq    3.15508638   -4.10756528   -0.40990259
Bq    3.27414624   -4.10756528   -0.56996608
Bq    3.39320610   -4.10756528   -0.72984160
Bq    3.51226596   -4.10756528   -0.89316547
Bq    3.63132583   -4.10756528   -1.06391557
Bq    3.75038569   -4.10756528   -1.24354223
Bq    3.86944555   -4.10756528   -1.42924084
Bq    3.98850542   -4.10756528   -1.61531581
Bq    4.10756528   -4.10756528   -1.79751448
Bq    4.22662514   -4.10756528   -1.97721560
Bq    4.34568501   -4.10756528   -2.16122085
Bq    4.46474487   -4.10756528   -2.35593433
Bq    4.58380473   -4.10756528   -2.56053052
Bq    4.70286460   -4.10756528   -2.76659045
Bq   -4.70286460   -3.98850542    3.45550971
Bq   -4.58380473   -3.98850542    3.50362434
Bq   -4.46474487   -3.98850542    3.54221341
Bq   -4.34568501   -3.98850542    3.56945460
Bq   -4.22662514   -3.98850542    3.59185063
Bq   -4.10756528   -3.98850542    3.61687819
Bq   -3.98850542   -3.98850542    3.64616834
Bq   -3.86944555   -3.98850542    3.67506161
Bq   -3.75038569   -3.98850542    3.69738488
Bq   -3.63132583   -3.98850542    3.71039203
Bq   -3.51226596   -3.98850542    3.71612415
Bq   -3.39320610   -3.98850542    3.71915538
Bq   -3.27414624   -3.98850542    3.72320754
Bq   -3.15508638   -3.98850542    3.72909656
Bq   -3.03602651   -3.98850542    3.73486596
Bq   -2.91696665   -3.98850542    3.73739427
Bq   -2.79790679   -3.98850542    3.73417568
Bq   -2.67884692   -3.98850542    3.72432405
Bq   -2.55978706   -3.98850542    3.70856979
Bq   -2.44072720   -3.98850542    3.68857829
Bq   -2.32166733   -3.98850542    3.66610308
Bq   -2.20260747   -3.98850542    3.64236547
Bq   -2.08354761   -3.98850542    3.61781307
Bq   -1.96448774   -3.98850542    3.59220603
Bq   -1.84542788   -3.98850542    3.56488229
Bq   -1.72636802   -3.98850542    3.53505201
Bq   -1.60730815   -3.98850542    3.50202299
Bq   -1.48824829   -3.98850542    3.46532122
Bq   -1.36918843   -3.98850542    3.42471633
Bq   -1.25012856   -3.98850542    3.38018394
Bq   -1.13106870   -3.98850542    3.33183963
Bq   -1.01200884   -3.98850542    3.27987115
Bq   -0.89294897   -3.98850542    3.22448409
Bq   -0.77388911   -3.98850542    3.16586633
Bq   -0.65482925   -3.98850542    3.10417004
Bq   -0.53576938   -3.98850542    3.03950701
Bq   -0.41670952   -3.98850542    2.97195230
Bq   -0.29764966   -3.98850542    2.90155188
Bq   -0.17858979   -3.98850542    2.82833118
Bq   -0.05952993   -3.98850542    2.75230258
Bq    0.05952993   -3.98850542    2.67347085
Bq    0.17858979   -3.98850542    2.59183589
Bq    0.29764966   -3.98850542    2.50739277
Bq    0.41670952   -3.98850542    2.42012891
Bq    0.53576938   -3.98850542    2.33001872
Bq    0.65482925   -3.98850542    2.23701606
Bq    0.77388911   -3.98850542    2.14104573
Bq    0.89294897   -3.98850542    2.04199580
Bq    1.01200884   -3.98850542    1.93971396
Bq    1.13106870   -3.98850542    1.83401224
Bq    1.25012856   -3.98850542    1.72468496
Bq    1.36918843   -3.98850542    1.61154430
Bq    1.48824829   -3.98850542    1.49447464
Bq    1.60730815   -3.98850542    1.37350033
Bq    1.72636802   -3.98850542    1.24885173
Bq    1.84542788   -3.98850542    1.12100286
Bq    1.96448774   -3.98850542    0.99064598
Bq    2.08354761   -3.98850542    0.85857098
Bq    2.20260747   -3.98850542    0.72544000
Bq    2.32166733   -3.98850542    0.59149299
Bq    2.44072720   -3.98850542    0.45628246
Bq    2.55978706   -3.98850542    0.31858721
Bq    2.67884692   -3.98850542    0.17665390
Bq    2.79790679   -3.98850542    0.02881726
Bq    2.91696665   -3.98850542   -0.12565293
Bq    3.03602651   -3.98850542   -0.28587037
Bq    3.15508638   -3.98850542   -0.44932907
Bq    3.27414624   -3.98850542   -0.61290735
Bq    3.39320610   -3.98850542   -0.77464858
Bq    3.51226596   -3.98850542   -0.93536849
Bq    3.63132583   -3.98850542   -1.09878874
Bq    3.75038569   -3.98850542   -1.26948329
Bq    3.86944555   -3.98850542   -1.44949309
Bq    3.98850542   -3.98850542   -1.63607186
Bq    4.10756528   -3.98850542   -1.82304636
Bq    4.22662514   -3.98850542   -2.00575701
Bq    4.34568501   -3.98850542   -2.18583475
Bq    4.46474487   -3.98850542   -2.37075624
Bq    4.58380473   -3.98850542   -2.56702410
Bq    4.70286460   -3.98850542   -2.77281601
Bq   -4.70286460   -3.86944555    3.26858458
Bq   -4.58380473   -3.86944555    3.31392209
Bq   -4.46474487   -3.86944555    3.34721300
Bq   -4.34568501   -3.86944555    3.37460735
Bq   -4.22662514   -3.86944555    3.40440641
Bq   -4.10756528   -3.86944555    3.43894929
Bq   -3.98850542   -3.86944555    3.47345001
Bq   -3.86944555   -3.86944555    3.50118855
Bq   -3.75038569   -3.86944555    3.51921914
Bq   -3.63132583   -3.86944555    3.52995862
Bq   -3.51226596   -3.86944555    3.53850675
Bq   -3.39320610   -3.86944555    3.54871243
Bq   -3.27414624   -3.86944555    3.56096569
Bq   -3.15508638   -3.86944555    3.57264305
Bq   -3.03602651   -3.86944555    3.58018687
Bq   -2.91696665   -3.86944555    3.58116439
Bq   -2.79790679   -3.86944555    3.57521234
Bq   -2.67884692   -3.86944555    3.56373502
Bq   -2.55978706   -3.86944555    3.54889332
Bq   -2.44072720   -3.86944555    3.53256712
Bq   -2.32166733   -3.86944555    3.51573619
Bq   -2.20260747   -3.86944555    3.49838180
Bq   -2.08354761   -3.86944555    3.47976337
Bq   -1.96448774   -3.86944555    3.45883828
Bq   -1.84542788   -3.86944555    3.43463327
Bq   -1.72636802   -3.86944555    3.40646948
Bq   -1.60730815   -3.86944555    3.37403053
Bq   -1.48824829   -3.86944555    3.33731588
Bq   -1.36918843   -3.86944555    3.29653721
Bq   -1.25012856   -3.86944555    3.25200655
Bq   -1.13106870   -3.86944555    3.20404612
Bq   -1.01200884   -3.86944555    3.15293110
Bq   -0.89294897   -3.86944555    3.09886364
Bq   -0.77388911   -3.86944555    3.04197029
Bq   -0.65482925   -3.86944555    2.98231333
Bq   -0.53576938   -3.86944555    2.91990805
Bq   -0.41670952   -3.86944555    2.85474056
Bq   -0.29764966   -3.86944555    2.78678308
Bq   -0.17858979   -3.86944555    2.71600572
Bq   -0.05952993   -3.86944555    2.64238446
Bq    0.05952993   -3.86944555    2.56590611
Bq    0.17858979   -3.86944555    2.48657058
Bq    0.29764966   -3.86944555    2.40439088
Bq    0.41670952   -3.86944555    2.31939083
Bq    0.53576938   -3.86944555    2.23160019
Bq    0.65482925   -3.86944555    2.14104655
Bq    0.77388911   -3.86944555    2.04774364
Bq    0.89294897   -3.86944555    1.95167606
Bq    1.01200884   -3.86944555    1.85278139
Bq    1.13106870   -3.86944555    1.75093298
Bq    1.25012856   -3.86944555    1.64592858
Bq    1.36918843   -3.86944555    1.53749296
Bq    1.48824829   -3.86944555    1.42530384
Bq    1.60730815   -3.86944555    1.30904916
Bq    1.72636802   -3.86944555    1.18851725
Bq    1.84542788   -3.86944555    1.06370867
Bq    1.96448774   -3.86944555    0.93493981
Bq    2.08354761   -3.86944555    0.80288963
Bq    2.20260747   -3.86944555    0.66853144
Bq    2.32166733   -3.86944555    0.53290797
Bq    2.44072720   -3.86944555    0.39675992
Bq    2.55978706   -3.86944555    0.26010614
Bq    2.67884692   -3.86944555    0.12196702
Bq    2.79790679   -3.86944555   -0.01953716
Bq    2.91696665   -3.86944555   -0.16656714
Bq    3.03602651   -3.86944555   -0.32052702
Bq    3.15508638   -3.86944555   -0.48105337
Bq    3.27414624   -3.86944555   -0.64571323
Bq    3.39320610   -3.86944555   -0.81094880
Bq    3.51226596   -3.86944555   -0.97413640
Bq    3.63132583   -3.86944555   -1.13566589
Bq    3.75038569   -3.86944555   -1.29938601
Bq    3.86944555   -3.86944555   -1.47039636
Bq    3.98850542   -3.86944555   -1.65111364
Bq    4.10756528   -3.86944555   -1.83859195